0 1
0 115
1 116
1 1164
2 3
2 117
3 4
3 118
4 5
4 119
5 6
5 120
6 7
6 121
7 8
7 122
8 9
8 123
9 10
9 124
10 11
10 125
11 12
11 126
12 13
12 127
13 14
13 128
14 15
14 129
14 1168
15 16
15 130
15 1286
16 17
16 131
17 18
17 132
18 19
18 133
18 1300
19 20
19 134
20 21
20 135
21 22
21 136
22 23
22 137
23 24
23 138
23 1289
24 25
24 139
25 26
25 140
26 27
26 141
27 28
27 142
28 29
28 143
29 30
29 144
30 31
30 145
30 1283
31 32
31 146
32 33
32 147
33 148
34 35
34 149
35 36
35 150
36 37
36 151
37 38
37 152
38 39
38 153
39 40
39 154
40 41
40 155
40 1303
41 42
41 156
42 157
43 44
43 158
44 45
44 159
44 1170
44 1179
45 46
45 160
46 47
46 161
47 48
47 162
48 49
48 163
49 50
49 164
50 51
50 165
51 52
51 166
52 53
52 167
53 54
53 168
53 1151
54 55
54 169
55 56
55 170
55 1345
56 57
56 171
57 58
57 172
57 1213
58 59
58 173
58 1254
59 60
59 174
60 61
60 175
61 62
61 176
62 63
62 177
63 64
63 178
64 65
64 179
64 1191
65 66
65 1269
66 67
66 181
67 68
67 182
68 69
68 183
68 1153
69 70
69 184
70 71
70 185
71 72
71 186
72 73
72 187
73 74
73 188
74 75
74 189
75 76
75 190
76 77
76 191
77 78
78 79
78 193
79 80
79 194
80 195
81 82
81 196
82 83
82 197
83 84
83 198
84 85
84 199
85 86
85 200
86 87
86 201
87 88
87 202
88 89
88 203
89 90
89 204
90 91
90 205
91 92
92 93
92 207
93 94
93 208
94 95
94 209
95 96
95 210
96 97
96 211
97 98
97 212
98 99
98 213
99 100
99 214
100 101
100 215
100 1180
101 102
101 216
102 103
102 217
102 1221
103 104
103 218
104 105
104 219
105 106
105 220
105 1315
106 107
106 221
107 108
107 222
108 109
108 223
109 110
109 224
110 111
110 225
111 112
111 226
112 113
112 227
113 114
113 228
114 229
115 116
115 230
116 117
116 231
117 118
117 232
118 119
118 233
119 120
119 234
120 121
120 235
121 122
121 236
122 123
122 237
123 124
123 238
124 125
125 126
125 240
126 127
126 241
127 128
128 243
129 130
129 244
130 131
130 245
131 132
131 246
132 133
132 247
133 134
133 248
134 135
134 249
135 136
135 250
136 137
136 251
137 138
137 252
138 139
138 253
139 140
139 254
139 1290
140 141
140 255
141 142
141 256
142 143
142 257
143 144
143 258
144 145
144 259
144 1195
145 146
145 260
146 147
146 261
147 148
147 262
148 149
148 263
148 1328
149 150
149 264
150 151
150 265
151 152
151 266
152 267
153 268
153 1282
154 155
154 269
154 1231
155 156
155 270
156 157
156 271
157 158
157 272
158 159
158 273
159 160
159 274
160 161
160 275
160 1313
161 162
161 276
162 163
162 277
163 164
164 165
164 279
165 166
165 280
166 167
166 281
166 1331
167 168
167 282
168 169
168 283
169 170
169 284
170 171
170 285
170 1222
171 172
171 286
172 173
172 287
173 174
173 288
174 175
174 289
175 176
176 177
176 291
177 178
177 292
178 179
179 180
179 294
180 181
180 295
181 182
181 296
182 183
183 184
183 298
183 1344
184 299
185 186
185 300
186 187
186 301
187 188
187 302
188 189
188 303
189 190
189 304
190 191
190 305
191 192
191 306
192 193
192 307
192 1223
192 1320
193 194
194 195
194 309
195 196
195 310
196 311
196 1316
197 198
197 312
197 1319
198 199
198 313
199 200
199 314
200 201
200 315
201 202
201 316
202 203
202 317
203 204
203 318
204 205
204 319
205 206
205 320
206 207
206 321
207 208
207 322
208 209
208 323
209 210
209 324
209 1181
210 211
210 325
210 1232
211 212
211 326
212 213
212 327
213 214
213 328
214 215
215 216
215 330
216 217
216 331
217 218
217 332
218 219
218 333
219 220
219 334
220 221
220 335
221 222
221 336
222 223
222 337
223 224
223 338
224 225
224 339
225 226
225 340
226 227
226 341
227 228
227 342
228 229
228 343
229 344
230 231
230 345
231 232
231 346
232 233
232 347
233 234
233 348
234 235
234 349
235 236
235 350
236 237
236 351
237 238
237 352
238 239
238 353
239 240
239 354
240 241
240 355
241 242
241 356
242 243
242 357
242 1184
242 1242
242 1308
243 244
244 245
244 359
245 246
245 360
246 247
246 361
247 248
247 362
248 249
248 363
249 250
249 364
250 251
250 365
251 252
251 366
252 253
252 367
253 254
253 368
254 255
254 369
255 256
255 370
256 257
256 371
257 258
257 372
258 259
258 373
258 1178
259 260
259 374
260 261
260 375
261 262
261 376
262 263
262 377
263 264
263 378
264 265
264 379
265 266
265 380
266 267
266 381
267 268
267 382
268 269
268 383
269 270
269 384
270 271
270 385
271 272
272 273
272 387
272 1265
273 274
273 388
274 275
274 389
275 276
275 390
276 277
276 391
277 278
277 392
278 279
278 393
279 280
279 394
280 281
280 395
281 282
281 396
281 1329
282 283
282 397
283 284
283 1187
284 285
284 399
285 286
285 400
285 1279
286 287
286 401
287 288
287 402
288 289
288 403
289 290
289 404
290 291
290 405
291 292
291 406
292 293
292 407
293 294
293 408
293 1198
294 295
294 409
295 296
295 410
296 297
297 298
297 412
298 299
298 413
299 300
299 414
299 1239
300 301
300 415
301 302
301 416
301 1348
302 303
302 417
303 304
303 418
304 305
304 419
305 420
306 421
306 1251
307 308
307 422
308 309
309 310
309 424
310 311
310 425
311 312
311 426
312 313
312 427
313 314
313 428
314 315
314 429
315 316
315 430
316 317
316 431
317 318
317 432
318 319
318 433
318 1299
319 320
319 434
320 321
320 435
321 322
321 436
322 323
322 437
323 324
323 438
324 325
324 439
325 326
325 440
326 327
326 441
327 328
327 442
327 1270
328 329
328 443
329 330
329 444
330 331
330 445
331 332
331 446
332 333
332 447
333 334
333 448
334 335
334 449
335 336
336 337
336 451
337 338
337 452
338 339
338 453
339 454
340 341
340 455
341 342
342 343
342 457
342 1305
343 344
343 458
344 459
345 346
345 460
346 347
346 461
347 348
347 462
347 1293
348 349
348 463
349 350
349 464
350 351
350 465
350 1225
351 352
351 466
352 353
352 467
353 354
353 468
354 355
354 469
355 356
355 470
356 357
356 471
357 358
357 472
358 359
358 473
359 360
359 474
360 361
360 475
361 362
361 476
362 363
362 477
363 364
363 478
364 365
364 479
365 366
365 480
366 367
366 481
367 368
367 482
368 369
368 483
368 1295
369 370
369 484
370 371
370 485
370 1339
371 372
371 486
372 373
372 487
372 1166
373 374
373 488
373 1306
374 375
374 489
374 1258
375 376
375 490
376 377
376 491
376 1172
377 378
377 492
378 379
378 493
379 380
379 494
379 1224
380 381
380 495
381 382
381 496
382 383
382 497
383 384
383 498
384 385
384 499
385 386
385 500
386 387
386 501
387 388
387 502
387 1240
388 389
388 503
389 390
389 504
390 391
390 505
390 1175
391 392
391 506
392 393
392 507
393 394
393 508
394 395
394 509
395 396
395 510
396 397
396 511
397 512
397 1333
398 399
398 513
399 400
399 514
399 1323
400 401
400 515
400 1230
401 402
401 516
402 403
402 517
403 404
403 518
404 405
404 519
405 520
406 407
406 521
407 408
407 522
407 1169
407 1171
408 409
408 523
409 410
409 524
410 411
410 525
410 1288
411 412
411 526
411 1189
411 1321
412 413
412 527
413 414
413 528
414 415
415 416
415 530
416 417
416 531
417 418
417 532
418 419
418 533
419 420
419 534
420 421
420 535
421 422
421 536
422 423
422 537
423 424
423 538
424 425
424 539
425 426
425 540
426 427
426 541
427 428
427 542
427 1210
428 429
429 430
429 544
430 431
430 545
430 1196
431 432
431 546
432 433
432 547
432 1310
433 434
433 548
434 435
434 549
435 436
435 550
436 437
436 551
437 438
437 552
438 439
438 553
439 440
439 554
440 441
441 442
441 556
442 443
442 557
442 1334
443 444
443 558
444 445
444 559
444 1273
444 1327
445 446
445 560
445 1219
446 447
446 561
446 1277
447 448
447 562
448 449
448 563
449 450
449 564
450 451
450 565
451 452
451 566
452 453
452 567
453 454
453 568
453 1353
454 455
454 569
455 570
456 457
456 571
456 1312
457 458
457 572
458 459
458 573
459 574
460 461
460 575
460 1229
461 462
461 576
462 463
462 577
463 464
463 578
463 1204
464 465
464 579
465 466
465 580
466 467
466 581
467 468
467 582
468 469
468 583
469 470
469 584
469 1241
470 471
470 585
471 472
471 586
472 473
472 587
473 474
473 588
474 475
474 589
474 1259
475 476
476 477
476 591
477 478
477 592
478 479
478 593
479 480
479 594
480 481
480 595
481 482
481 596
481 1352
482 483
482 597
483 484
483 598
483 1281
484 485
484 599
485 486
485 600
485 1207
486 487
486 601
487 488
487 602
488 489
488 603
489 490
489 604
490 491
490 605
491 492
491 606
492 493
492 607
493 494
493 608
494 495
494 609
495 496
495 610
496 497
496 611
497 498
497 612
497 1354
498 499
498 613
499 500
499 614
499 1351
500 501
500 615
501 502
501 616
502 503
502 617
503 504
503 618
503 1325
504 505
504 619
504 1307
505 620
506 507
506 621
507 508
507 622
507 1157
508 509
508 1182
509 510
509 624
510 511
510 625
511 512
511 626
512 513
512 627
512 1216
513 514
513 628
514 515
514 629
515 630
516 517
516 631
517 518
517 632
518 519
518 633
519 520
520 635
521 522
521 636
521 1234
522 523
522 637
523 524
523 638
524 525
524 639
525 526
525 640
526 527
526 641
527 528
527 642
528 643
529 530
529 644
530 531
530 645
531 532
531 646
532 533
532 647
533 534
533 648
534 535
534 649
535 536
535 650
536 537
536 651
536 1150
537 538
537 652
538 539
538 653
539 540
539 654
540 541
540 655
541 542
541 656
542 543
542 657
542 1165
542 1214
543 544
543 658
544 545
544 659
545 546
545 660
546 547
546 661
547 548
547 662
548 549
548 663
548 1317
549 550
549 664
549 1160
550 551
550 665
551 552
551 666
552 553
552 667
552 1203
553 554
553 668
554 555
554 669
554 1163
555 556
555 670
555 1278
556 557
556 671
557 558
557 672
558 559
558 673
559 560
559 674
559 1209
560 561
560 675
561 562
562 563
562 677
562 1188
563 564
563 678
564 565
564 679
564 1266
565 566
565 680
566 567
566 681
566 1342
567 568
567 682
568 1174
569 570
569 684
570 571
570 685
571 572
571 686
572 573
572 687
573 574
573 688
573 1338
574 689
575 576
575 690
576 577
576 691
576 1250
577 578
578 579
578 693
579 580
579 694
580 581
580 695
581 696
582 583
582 697
582 1263
583 584
583 698
584 585
585 586
585 700
586 587
586 701
587 588
587 702
587 1227
588 589
588 703
589 590
589 704
589 1167
590 591
590 705
591 592
591 706
592 593
592 707
593 594
593 708
594 595
594 709
595 596
595 710
596 597
596 711
597 598
597 712
597 1152
598 713
599 600
599 714
600 601
600 715
601 602
601 716
602 603
602 717
603 604
603 718
604 605
604 719
605 606
606 607
606 721
607 608
607 722
608 609
608 723
609 610
609 724
610 611
610 725
610 1217
611 612
611 726
612 613
612 727
613 614
613 728
614 615
614 729
614 1296
615 616
615 730
616 617
616 731
617 618
617 732
617 1243
618 619
618 733
619 620
619 734
620 621
620 735
621 622
621 736
622 737
623 624
623 738
624 625
624 739
624 1314
625 626
625 740
626 741
627 628
627 742
628 629
628 743
629 630
629 744
630 631
630 745
631 632
632 633
632 747
633 634
633 748
633 1280
634 635
634 749
635 636
635 750
635 1186
636 637
636 751
637 752
638 639
638 753
639 640
639 754
639 1155
640 641
640 755
641 642
641 756
642 643
642 757
643 758
644 645
644 759
645 646
645 760
645 1218
646 647
646 761
647 648
647 762
648 649
648 763
649 650
649 764
650 651
650 765
651 652
652 653
652 767
653 654
653 768
654 655
654 769
655 656
655 770
656 657
656 771
657 658
658 773
658 1260
659 660
659 774
660 661
660 775
661 662
661 776
662 663
662 1298
663 664
663 778
664 665
664 779
665 666
665 780
666 667
666 781
667 668
667 782
667 1173
668 669
668 783
669 670
669 784
670 671
670 785
671 672
671 786
672 673
672 787
673 674
673 788
673 1349
674 789
675 676
675 790
676 677
676 791
677 678
677 792
678 679
678 793
679 680
679 794
680 681
680 795
681 682
681 796
682 683
683 684
683 798
684 685
684 799
685 686
685 800
686 687
686 801
687 688
687 802
688 689
689 804
689 1176
690 691
690 805
691 806
691 1237
692 693
692 807
693 694
693 808
694 695
694 809
694 1249
695 696
695 810
695 1275
696 697
696 811
697 698
697 812
697 1194
698 699
698 813
699 700
699 814
700 701
700 815
700 1226
701 702
701 816
701 1311
702 703
702 817
703 818
703 1292
704 705
704 819
705 706
705 820
706 707
706 821
707 708
707 822
708 709
709 710
709 824
710 711
710 825
711 712
711 826
712 713
712 827
713 714
713 828
714 715
714 829
715 716
715 830
716 717
716 831
717 718
717 832
718 719
718 833
719 720
719 834
720 721
720 835
721 722
721 836
722 837
723 724
723 838
724 725
724 839
725 726
725 840
726 727
726 841
727 728
727 842
728 729
728 843
729 730
729 844
730 731
730 845
730 1335
731 732
731 846
732 733
732 847
733 734
733 848
733 1337
734 735
734 849
735 736
735 850
736 737
736 851
737 738
737 852
738 739
738 853
739 740
739 854
740 741
740 855
741 742
741 856
742 743
742 857
743 744
743 858
744 745
744 859
745 746
745 860
746 747
746 861
747 748
747 862
748 749
748 863
748 1267
749 750
749 864
749 1332
750 751
751 752
751 866
752 753
752 867
753 754
753 868
754 755
755 756
755 870
756 757
756 871
757 758
757 872
758 873
759 760
759 874
759 1271
760 761
760 875
761 762
761 876
762 763
762 877
763 764
763 878
764 765
764 879
765 766
765 880
766 767
766 881
767 768
767 882
768 769
768 883
769 770
769 1161
770 771
770 885
771 772
771 886
771 1212
772 773
773 774
773 888
774 775
774 889
775 776
775 890
776 777
776 891
777 778
777 1185
778 893
779 780
779 894
779 1304
779 1322
780 781
780 895
781 782
781 896
782 783
782 897
783 898
784 785
784 899
785 786
785 900
786 787
786 901
787 788
787 902
788 789
788 903
789 790
789 904
790 791
790 905
791 792
791 906
792 793
792 907
793 794
793 908
794 795
794 909
795 796
795 910
796 797
796 911
796 1177
797 798
797 912
798 799
798 913
799 800
799 914
800 801
800 915
801 802
801 916
802 803
802 917
803 804
803 918
803 1162
804 919
805 806
805 920
806 921
807 808
807 922
808 809
808 923
809 810
809 924
809 1294
810 811
810 925
811 812
811 926
812 813
812 927
813 814
813 928
813 1156
814 815
815 816
815 930
816 817
816 931
816 1257
817 818
817 932
818 819
819 820
819 934
820 821
820 935
820 1201
821 822
821 936
822 823
822 937
823 938
824 825
824 939
825 826
825 940
826 827
826 941
827 828
828 829
828 943
829 830
830 831
830 945
831 832
831 946
831 1190
832 833
832 947
833 834
833 948
834 835
834 949
835 836
835 950
836 837
836 951
837 838
837 952
838 839
838 953
838 1355
839 840
839 954
840 841
840 955
841 842
841 956
842 843
842 957
843 844
843 958
843 1183
844 845
844 959
845 846
845 960
845 1193
846 847
846 961
847 848
847 962
848 849
848 963
848 1297
849 850
849 964
849 1262
850 851
850 965
851 852
851 966
852 853
852 967
853 854
853 968
854 855
854 1220
855 856
856 857
856 971
857 858
857 972
858 859
858 973
858 1268
859 860
859 974
860 975
861 862
861 976
862 863
862 977
862 1192
862 1324
863 864
863 978
864 865
864 979
864 1255
865 866
865 980
866 867
866 981
867 868
867 982
868 869
868 983
868 1154
869 870
869 984
870 871
870 985
871 872
871 986
872 873
872 987
873 874
873 988
874 875
874 989
874 1205
875 876
875 990
876 877
876 991
877 878
877 992
878 879
878 993
879 880
879 994
880 881
880 995
881 882
881 996
882 883
882 997
882 1158
883 884
883 998
884 885
884 999
885 886
885 1000
885 1274
886 887
886 1001
887 888
887 1002
888 889
888 1003
888 1318
888 1356
889 890
889 1004
890 891
890 1005
891 892
891 1006
892 893
893 894
893 1008
894 895
895 896
895 1010
896 897
896 1011
897 898
897 1012
898 899
898 1013
899 900
899 1014
900 901
900 1015
901 1016
902 903
902 1017
903 904
903 1018
904 905
904 1019
905 906
905 1020
906 907
906 1021
907 908
907 1022
908 909
908 1023
909 1024
909 1264
910 911
911 912
911 1026
911 1253
912 913
912 1027
913 914
913 1028
914 915
914 1029
915 916
915 1030
915 1340
916 917
916 1031
917 918
917 1032
918 919
918 1033
919 1034
920 921
920 1035
921 1036
922 923
922 1037
923 1038
924 925
924 1039
925 926
925 1040
926 927
926 1041
927 928
927 1042
927 1197
927 1236
928 929
928 1043
928 1247
929 930
929 1044
930 931
930 1045
931 932
931 1046
931 1309
932 933
932 1047
933 934
933 1048
934 935
934 1049
934 1252
935 936
935 1050
936 937
936 1051
937 938
937 1052
938 939
938 1053
939 940
939 1054
940 941
940 1055
941 942
941 1056
942 943
942 1057
943 944
943 1058
943 1206
944 945
944 1059
945 946
945 1060
945 1200
946 947
946 1061
947 948
947 1062
948 949
948 1063
949 950
949 1064
950 951
950 1065
951 952
951 1066
952 953
952 1067
952 1302
953 954
953 1068
954 955
954 1069
955 956
955 1070
956 957
956 1071
957 958
957 1072
958 959
958 1073
959 960
959 1074
960 961
960 1075
961 962
961 1076
962 963
962 1077
963 964
963 1078
964 1079
965 966
965 1080
966 967
966 1081
967 968
967 1082
968 969
968 1083
970 971
970 1085
971 972
971 1086
971 1211
972 973
972 1087
973 974
973 1088
974 975
974 1089
975 976
975 1090
975 1336
976 977
976 1091
977 978
977 1092
978 979
978 1093
979 980
979 1094
980 981
980 1095
981 982
981 1202
982 983
982 1097
982 1246
983 984
983 1098
984 985
984 1099
985 986
985 1100
985 1326
986 987
986 1101
987 988
987 1102
988 989
988 1103
989 1104
990 991
990 1105
991 992
991 1106
992 993
992 1107
993 994
993 1108
993 1285
994 995
994 1109
995 996
995 1110
995 1245
996 997
996 1111
997 998
997 1112
998 999
998 1113
999 1000
999 1114
1000 1001
1000 1115
1001 1002
1001 1116
1002 1003
1002 1117
1003 1004
1003 1118
1004 1005
1004 1119
1005 1006
1005 1120
1006 1007
1006 1121
1007 1008
1007 1122
1008 1009
1008 1123
1009 1010
1009 1124
1010 1011
1010 1125
1011 1012
1011 1126
1012 1013
1012 1127
1013 1014
1013 1128
1014 1015
1014 1129
1015 1016
1015 1130
1016 1017
1016 1131
1017 1018
1017 1132
1018 1019
1018 1133
1019 1020
1020 1021
1020 1135
1021 1022
1021 1136
1022 1023
1022 1137
1022 1208
1023 1024
1023 1138
1024 1025
1024 1139
1025 1140
1025 1233
1026 1027
1026 1141
1027 1028
1027 1142
1028 1029
1028 1143
1029 1030
1029 1144
1030 1031
1030 1145
1031 1032
1031 1146
1032 1033
1032 1147
1032 1341
1033 1034
1033 1148
1034 1149
1035 1036
1036 1037
1036 1159
1036 1238
1037 1038
1038 1039
1039 1040
1040 1041
1041 1042
1042 1043
1043 1044
1044 1045
1045 1046
1046 1047
1047 1048
1048 1049
1049 1050
1049 1248
1050 1051
1051 1052
1052 1053
1053 1054
1054 1055
1055 1056
1056 1057
1057 1058
1058 1059
1059 1060
1060 1061
1061 1062
1062 1063
1063 1064
1064 1065
1065 1066
1065 1261
1066 1067
1067 1068
1068 1069
1069 1070
1070 1071
1070 1272
1071 1072
1071 1301
1072 1073
1073 1074
1074 1075
1074 1244
1075 1076
1076 1077
1076 1346
1077 1078
1078 1079
1079 1080
1080 1081
1081 1082
1082 1083
1084 1085
1084 1215
1084 1235
1085 1086
1085 1256
1086 1087
1087 1088
1088 1089
1089 1090
1089 1199
1090 1091
1090 1228
1091 1092
1092 1093
1093 1094
1093 1284
1094 1095
1095 1096
1096 1097
1097 1098
1098 1099
1099 1100
1100 1101
1101 1102
1102 1103
1103 1104
1104 1105
1105 1106
1106 1107
1107 1108
1108 1109
1108 1276
1109 1110
1110 1111
1111 1112
1112 1113
1113 1114
1113 1287
1113 1343
1114 1115
1115 1116
1116 1117
1116 1347
1117 1118
1118 1119
1119 1120
1120 1121
1121 1122
1122 1123
1123 1124
1124 1125
1125 1126
1126 1127
1127 1128
1128 1129
1129 1130
1130 1131
1131 1132
1132 1133
1132 1291
1133 1134
1134 1135
1135 1136
1136 1137
1137 1138
1138 1139
1139 1140
1139 1350
1140 1141
1142 1143
1143 1144
1144 1145
1145 1146
1145 1330
1146 1147
1147 1148
1148 1149
