0 114
0 128
0 297
0 512
0 668
0 807
0 875
0 953
0 1045
0 1213
0 1250
0 1348
0 1390
1 9
1 31
1 44
1 46
1 54
1 81
1 83
1 105
1 108
1 152
1 166
1 181
1 186
1 187
1 217
1 228
1 236
1 252
1 298
1 316
1 322
1 337
1 353
1 402
1 406
1 419
1 462
1 470
1 485
1 488
1 514
1 611
1 683
1 686
1 693
1 724
1 733
1 746
1 750
1 777
1 833
1 837
1 895
1 922
1 927
1 947
1 1058
1 1134
1 1135
1 1157
1 1220
1 1223
1 1233
1 1252
1 1286
1 1360
1 1380
2 161
2 542
2 676
2 684
2 706
2 808
2 904
2 1069
2 1112
3 65
3 110
3 122
3 182
3 269
3 446
3 454
3 480
3 496
3 783
3 825
3 893
3 949
4 26
4 40
4 177
4 207
4 335
4 395
4 615
4 944
4 1339
5 7
5 81
5 91
5 105
5 163
5 192
5 212
5 224
5 229
5 239
5 252
5 309
5 353
5 371
5 406
5 427
5 467
5 488
5 504
5 543
5 595
5 617
5 632
5 648
5 654
5 686
5 735
5 753
5 762
5 777
5 782
5 789
5 829
5 837
5 868
5 935
5 982
5 1032
5 1058
5 1089
5 1143
5 1196
5 1286
5 1320
5 1340
5 1394
6 233
6 292
6 1000
6 1033
6 1156
7 10
7 33
7 136
7 163
7 166
7 212
7 220
7 224
7 258
7 260
7 279
7 309
7 326
7 331
7 427
7 431
7 485
7 488
7 490
7 532
7 554
7 557
7 633
7 683
7 722
7 733
7 735
7 763
7 803
7 806
7 868
7 934
7 935
7 989
7 992
7 1035
7 1042
7 1067
7 1084
7 1085
7 1089
7 1119
7 1196
7 1223
7 1252
7 1328
7 1351
7 1357
8 85
8 184
8 207
8 318
8 327
8 343
8 367
8 395
8 422
8 470
8 640
8 644
8 652
8 718
8 734
8 801
8 886
8 1048
8 1095
8 1247
8 1266
8 1284
8 1290
8 1302
8 1332
9 25
9 80
9 91
9 116
9 166
9 187
9 217
9 258
9 309
9 331
9 350
9 391
9 399
9 490
9 497
9 504
9 507
9 546
9 554
9 571
9 617
9 632
9 735
9 750
9 762
9 806
9 815
9 829
9 833
9 942
9 943
9 963
9 1020
9 1067
9 1140
9 1148
9 1178
9 1220
9 1223
9 1241
9 1265
9 1280
9 1307
9 1320
9 1357
9 1372
9 1391
9 1394
10 46
10 52
10 101
10 105
10 112
10 165
10 181
10 193
10 224
10 225
10 228
10 246
10 309
10 331
10 380
10 412
10 514
10 518
10 557
10 582
10 591
10 627
10 633
10 661
10 686
10 724
10 733
10 735
10 762
10 782
10 815
10 833
10 852
10 934
10 943
10 985
10 989
10 992
10 1067
10 1084
10 1096
10 1106
10 1127
10 1143
10 1162
10 1191
10 1196
10 1231
10 1265
10 1328
10 1367
10 1372
10 1379
10 1391
11 43
11 53
11 70
11 125
11 461
11 535
11 612
11 631
11 795
11 884
11 956
11 1093
11 1243
12 23
12 63
12 155
12 225
12 234
12 295
12 341
12 405
12 521
12 577
12 640
12 648
12 659
12 666
12 685
12 712
12 773
12 836
12 894
12 1057
12 1169
12 1198
12 1290
13 18
13 35
13 65
13 176
13 450
13 454
13 534
13 623
13 797
13 817
13 875
13 902
13 959
13 1181
13 1214
13 1369
13 1390
14 136
14 241
14 741
14 852
14 942
14 1027
14 1367
15 104
15 225
15 233
15 281
15 288
15 292
15 474
15 608
15 616
15 954
15 994
15 1131
15 1218
16 41
16 84
16 200
16 247
16 372
16 387
16 527
16 607
16 677
16 740
16 851
16 932
16 1023
16 1041
16 1064
16 1098
16 1101
16 1122
16 1174
16 1203
16 1347
17 107
17 143
17 255
17 275
17 319
17 356
17 369
17 569
17 798
17 860
17 888
17 974
17 1051
17 1281
17 1283
17 1304
17 1313
18 35
18 146
18 210
18 259
18 416
18 549
18 597
18 604
18 695
18 740
18 764
18 797
18 850
18 910
18 1023
18 1070
18 1102
18 1110
18 1259
18 1312
18 1358
18 1385
19 109
19 238
19 261
19 453
19 851
19 917
19 971
19 1101
19 1114
19 1145
19 1239
19 1260
19 1285
20 94
20 150
20 162
20 182
20 270
20 480
20 521
20 590
20 600
20 676
20 725
20 785
20 1057
20 1069
20 1100
20 1216
20 1356
21 285
21 565
21 826
21 855
21 1387
22 605
22 806
22 1040
23 87
23 149
23 340
23 523
23 558
23 709
23 740
23 773
23 836
23 902
23 930
23 1023
23 1130
23 1171
23 1206
23 1214
24 33
24 39
24 45
24 79
24 80
24 83
24 101
24 169
24 186
24 193
24 224
24 268
24 311
24 353
24 361
24 399
24 485
24 488
24 531
24 591
24 617
24 627
24 741
24 750
24 805
24 815
24 872
24 878
24 885
24 889
24 905
24 913
24 945
24 951
24 1058
24 1135
24 1196
24 1233
24 1252
24 1263
24 1274
24 1320
24 1340
24 1357
24 1391
25 33
25 46
25 67
25 91
25 101
25 103
25 156
25 191
25 192
25 220
25 229
25 240
25 279
25 331
25 337
25 353
25 371
25 376
25 406
25 470
25 497
25 504
25 517
25 531
25 546
25 605
25 624
25 627
25 648
25 689
25 722
25 724
25 729
25 733
25 746
25 750
25 768
25 788
25 806
25 812
25 815
25 823
25 834
25 861
25 868
25 872
25 924
25 928
25 942
25 947
25 950
25 960
25 1046
25 1058
25 1078
25 1079
25 1082
25 1084
25 1089
25 1106
25 1107
25 1109
25 1119
25 1127
25 1191
25 1231
25 1256
25 1340
25 1372
26 146
26 335
26 460
26 468
26 574
26 615
26 911
26 929
26 1110
26 1136
26 1343
26 1389
27 32
27 226
27 281
27 282
27 305
27 340
27 378
27 508
27 584
27 608
27 629
27 650
27 703
27 723
27 761
27 765
27 862
27 871
27 912
27 914
27 970
27 983
27 1012
27 1047
27 1171
27 1257
27 1321
27 1342
27 1365
28 396
28 710
28 1150
28 1271
28 1308
29 31
29 44
29 54
29 91
29 105
29 116
29 156
29 181
29 215
29 217
29 225
29 239
29 271
29 291
29 325
29 326
29 363
29 371
29 399
29 419
29 517
29 529
29 554
29 603
29 617
29 618
29 627
29 661
29 686
29 800
29 804
29 812
29 834
29 868
29 872
29 901
29 927
29 982
29 1008
29 1027
29 1032
29 1035
29 1042
29 1067
29 1089
29 1119
29 1154
29 1220
29 1223
29 1238
29 1263
29 1286
29 1372
29 1382
30 154
30 308
30 365
30 606
30 609
30 1164
30 1245
30 1304
30 1313
31 39
31 45
31 80
31 91
31 178
31 181
31 228
31 260
31 316
31 337
31 402
31 430
31 431
31 485
31 488
31 517
31 518
31 532
31 557
31 571
31 627
31 633
31 648
31 654
31 660
31 693
31 775
31 804
31 812
31 831
31 861
31 872
31 877
31 878
31 880
31 889
31 895
31 901
31 913
31 943
31 982
31 989
31 1020
31 1032
31 1035
31 1067
31 1080
31 1127
31 1134
31 1157
31 1196
31 1233
31 1263
31 1274
31 1280
31 1335
31 1338
31 1357
31 1360
32 65
32 151
32 164
32 183
32 184
32 204
32 280
32 290
32 378
32 385
32 454
32 458
32 463
32 647
32 765
32 858
32 882
32 897
32 940
32 1095
32 1177
32 1318
32 1361
32 1397
33 37
33 46
33 52
33 80
33 116
33 165
33 174
33 178
33 181
33 192
33 212
33 217
33 225
33 229
33 236
33 239
33 246
33 311
33 322
33 346
33 351
33 391
33 399
33 408
33 427
33 431
33 504
33 518
33 532
33 557
33 571
33 591
33 599
33 611
33 617
33 618
33 633
33 722
33 768
33 777
33 812
33 819
33 833
33 834
33 861
33 868
33 889
33 900
33 933
33 942
33 985
33 992
33 1014
33 1027
33 1034
33 1040
33 1089
33 1096
33 1127
33 1148
33 1178
33 1223
33 1231
33 1252
33 1316
33 1338
33 1340
33 1362
34 182
34 205
34 253
34 299
34 447
34 480
34 921
34 1004
34 1155
35 65
35 176
35 450
35 454
35 534
35 623
35 797
35 817
35 875
35 902
35 959
35 1181
35 1214
35 1369
35 1390
36 62
36 94
36 259
36 481
36 527
36 600
36 619
36 948
36 1064
36 1070
36 1216
36 1226
36 1356
37 90
37 163
37 181
37 187
37 215
37 217
37 316
37 485
37 617
37 683
37 950
37 1082
37 1140
37 1191
37 1274
37 1360
38 53
38 126
38 201
38 254
38 358
38 368
38 439
38 533
38 547
38 569
38 675
38 767
38 795
38 798
38 973
38 1235
38 1310
39 44
39 80
39 83
39 89
39 112
39 120
39 152
39 165
39 166
39 187
39 212
39 215
39 216
39 217
39 224
39 236
39 246
39 258
39 268
39 271
39 320
39 326
39 353
39 431
39 485
39 518
39 582
39 763
39 769
39 829
39 834
39 837
39 852
39 878
39 885
39 889
39 928
39 933
39 943
39 963
39 989
39 1035
39 1040
39 1076
39 1078
39 1082
39 1338
39 1351
39 1379
40 177
40 615
40 673
40 767
40 869
40 1045
40 1213
40 1310
41 84
41 184
41 247
41 287
41 451
41 896
41 1073
41 1081
41 1095
41 1167
41 1229
41 1248
42 217
42 611
42 627
43 48
43 64
43 85
43 134
43 189
43 257
43 303
43 347
43 360
43 457
43 461
43 491
43 551
43 559
43 612
43 652
43 692
43 817
43 845
43 883
43 958
43 981
43 986
43 1010
43 1015
43 1188
43 1341
43 1369
44 45
44 81
44 83
44 136
44 163
44 169
44 186
44 217
44 230
44 320
44 322
44 331
44 353
44 408
44 427
44 470
44 497
44 500
44 507
44 543
44 683
44 733
44 735
44 741
44 746
44 769
44 788
44 831
44 833
44 868
44 877
44 880
44 885
44 926
44 945
44 982
44 992
44 1003
44 1008
44 1032
44 1058
44 1067
44 1082
44 1096
44 1178
44 1220
44 1263
44 1265
44 1320
44 1340
44 1367
45 83
45 91
45 108
45 120
45 163
45 181
45 193
45 252
45 260
45 268
45 279
45 353
45 419
45 485
45 497
45 529
45 554
45 582
45 603
45 654
45 665
45 722
45 729
45 733
45 735
45 744
45 753
45 762
45 768
45 789
45 815
45 833
45 852
45 861
45 872
45 903
45 907
45 960
45 985
45 1034
45 1076
45 1084
45 1089
45 1134
45 1192
45 1220
45 1263
45 1274
45 1280
45 1286
45 1379
45 1394
46 54
46 81
46 99
46 105
46 116
46 212
46 224
46 228
46 229
46 252
46 268
46 311
46 324
46 346
46 406
46 431
46 441
46 497
46 517
46 531
46 571
46 582
46 595
46 603
46 618
46 693
46 733
46 744
46 775
46 782
46 793
46 804
46 806
46 833
46 834
46 868
46 872
46 878
46 913
46 934
46 935
46 963
46 989
46 1008
46 1076
46 1194
46 1196
46 1286
46 1307
46 1362
46 1391
47 66
47 71
47 155
47 250
47 257
47 283
47 394
47 438
47 550
47 553
47 596
47 649
47 659
47 688
47 751
47 760
47 844
47 879
47 1010
47 1024
47 1258
48 195
48 461
48 548
48 560
48 728
48 830
48 958
48 962
48 1102
48 1137
48 1205
48 1259
48 1278
48 1349
49 168
49 201
49 439
49 509
49 651
49 738
49 752
49 796
49 1227
50 257
50 701
50 767
50 1010
50 1310
51 168
51 509
51 536
51 1066
51 1201
52 54
52 116
52 156
52 163
52 181
52 322
52 351
52 353
52 467
52 557
52 571
52 722
52 730
52 762
52 763
52 768
52 819
52 834
52 868
52 878
52 922
52 935
52 960
52 963
52 985
52 1008
52 1034
52 1035
52 1079
52 1106
52 1135
52 1178
52 1233
52 1274
52 1338
53 87
53 106
53 196
53 263
53 289
53 349
53 502
53 547
53 612
53 795
53 930
53 1141
53 1166
53 1217
53 1334
54 93
54 105
54 152
54 163
54 178
54 217
54 240
54 241
54 260
54 309
54 326
54 337
54 363
54 376
54 380
54 402
54 406
54 427
54 462
54 485
54 514
54 529
54 531
54 543
54 571
54 603
54 611
54 617
54 627
54 654
54 697
54 733
54 750
54 763
54 788
54 834
54 889
54 901
54 913
54 933
54 945
54 978
54 1020
54 1032
54 1042
54 1067
54 1127
54 1134
54 1135
54 1140
54 1148
54 1162
54 1263
54 1265
54 1280
54 1320
54 1338
54 1340
54 1351
54 1362
54 1380
54 1382
54 1394
55 97
55 168
55 339
55 483
55 509
55 772
55 856
55 956
55 988
55 1146
55 1243
55 1346
55 1396
56 545
56 569
56 579
56 798
56 984
57 131
57 341
57 392
57 410
57 440
57 630
57 932
57 1169
57 1174
58 455
58 523
58 709
58 779
58 816
59 306
59 394
59 404
59 411
59 426
59 818
59 879
59 1121
59 1128
59 1129
59 1195
59 1211
59 1295
60 66
60 117
60 255
60 286
60 369
60 377
60 553
60 614
60 832
60 972
60 1049
60 1151
60 1204
61 96
61 113
61 126
61 143
61 358
61 413
61 414
61 464
61 469
61 561
61 653
61 676
61 705
61 757
61 820
61 838
61 946
61 974
61 1026
61 1069
61 1088
61 1105
61 1130
61 1170
61 1184
61 1206
61 1253
61 1318
61 1397
62 196
62 259
62 466
62 468
62 512
62 619
62 639
62 666
62 712
62 817
62 911
62 1070
62 1217
62 1226
62 1348
62 1369
63 153
63 266
63 389
63 394
63 405
63 470
63 478
63 498
63 535
63 648
63 655
63 720
63 754
63 773
63 841
63 879
63 884
63 1118
63 1289
63 1359
64 461
64 563
64 613
64 898
64 986
64 1158
64 1254
64 1363
65 104
65 162
65 254
65 255
65 269
65 282
65 369
65 370
65 454
65 474
65 495
65 723
65 751
65 765
65 938
65 955
65 1000
65 1055
65 1100
65 1116
65 1156
65 1190
65 1221
65 1235
65 1258
66 195
66 283
66 286
66 409
66 460
66 553
66 574
66 658
66 830
66 897
66 940
66 1145
66 1239
66 1284
66 1302
67 163
67 192
67 215
67 252
67 268
67 371
67 380
67 467
67 477
67 500
67 586
67 733
67 746
67 753
67 834
67 872
67 901
67 927
67 943
67 945
67 982
67 985
67 1003
67 1078
67 1096
67 1134
67 1231
67 1274
67 1328
67 1340
67 1380
68 471
68 616
68 954
68 1000
68 1156
69 130
69 364
69 512
69 520
69 565
69 732
69 802
69 826
69 864
69 979
69 1005
69 1173
69 1348
70 220
70 400
70 596
70 612
70 631
70 682
70 702
70 812
70 995
70 1024
70 1092
70 1384
71 132
71 256
71 283
71 321
71 456
71 548
71 560
71 760
71 887
71 909
71 1063
71 1299
72 755
72 767
72 906
72 1219
72 1310
73 99
73 156
73 298
73 309
73 350
73 363
73 366
73 376
73 399
73 430
73 470
73 488
73 529
73 599
73 603
73 806
73 833
73 837
73 839
73 889
73 901
73 927
73 935
73 942
73 943
73 1014
73 1082
73 1084
73 1135
73 1162
73 1274
73 1320
74 321
74 538
74 801
74 822
74 909
74 1013
74 1041
74 1332
74 1347
75 759
75 1168
75 1207
75 1240
75 1279
76 202
76 278
76 598
76 676
76 703
76 919
76 1012
76 1069
76 1152
76 1224
76 1251
76 1273
76 1300
77 175
77 256
77 264
77 273
77 294
77 296
77 411
77 493
77 969
77 1000
77 1063
77 1156
77 1211
77 1282
77 1305
78 386
78 635
78 673
78 869
78 1291
79 181
79 1089
80 105
80 112
80 167
80 181
80 191
80 192
80 212
80 215
80 217
80 230
80 239
80 268
80 291
80 311
80 331
80 337
80 366
80 380
80 399
80 485
80 488
80 531
80 532
80 554
80 586
80 627
80 633
80 648
80 661
80 683
80 686
80 697
80 733
80 775
80 782
80 788
80 837
80 877
80 895
80 905
80 920
80 934
80 935
80 942
80 963
80 1020
80 1027
80 1058
80 1076
80 1127
80 1148
80 1178
80 1196
80 1223
80 1238
80 1263
80 1280
80 1286
80 1340
80 1380
81 89
81 101
81 165
81 178
81 217
81 218
81 241
81 252
81 271
81 326
81 350
81 353
81 371
81 376
81 388
81 431
81 467
81 470
81 500
81 557
81 591
81 648
81 661
81 693
81 774
81 782
81 803
81 852
81 878
81 895
81 901
81 942
81 989
81 1034
81 1078
81 1127
81 1148
81 1191
81 1223
81 1252
81 1286
81 1307
81 1340
81 1352
81 1362
81 1388
82 164
82 262
82 418
82 463
82 662
82 731
82 865
82 1002
82 1074
83 169
83 215
83 224
83 228
83 241
83 252
83 309
83 351
83 352
83 361
83 376
83 419
83 507
83 518
83 526
83 611
83 618
83 654
83 665
83 746
83 861
83 924
83 934
83 1034
83 1084
83 1233
83 1274
84 200
84 247
84 372
84 387
84 527
84 607
84 677
84 740
84 851
84 932
84 1023
84 1041
84 1064
84 1098
84 1101
84 1122
84 1174
84 1203
84 1347
85 201
85 422
85 439
85 461
85 470
85 652
85 1056
86 107
86 210
86 549
86 860
86 1075
87 151
87 155
87 434
87 472
87 659
87 795
87 811
87 836
87 916
87 930
87 1177
87 1189
87 1304
87 1313
87 1331
88 117
88 119
88 123
88 254
88 614
88 1049
88 1151
88 1235
88 1377
89 91
89 112
89 152
89 163
89 166
89 167
89 192
89 215
89 220
89 241
89 291
89 337
89 353
89 363
89 366
89 399
89 408
89 419
89 467
89 490
89 517
89 554
89 557
89 591
89 603
89 617
89 632
89 654
89 665
89 762
89 803
89 861
89 878
89 889
89 901
89 960
89 963
89 982
89 1011
89 1034
89 1162
89 1178
89 1191
89 1192
89 1220
89 1238
89 1263
89 1338
89 1360
89 1379
90 212
90 220
90 236
90 241
90 260
90 363
90 380
90 399
90 517
90 599
90 603
90 648
90 654
90 693
90 827
90 872
90 895
90 913
90 927
90 945
90 951
90 963
90 1231
90 1233
90 1238
90 1352
90 1391
91 165
91 186
91 192
91 193
91 217
91 236
91 241
91 258
91 260
91 279
91 298
91 316
91 331
91 353
91 359
91 363
91 376
91 402
91 419
91 431
91 497
91 504
91 571
91 618
91 648
91 665
91 686
91 704
91 769
91 839
91 880
91 922
91 935
91 942
91 947
91 1008
91 1058
91 1067
91 1143
91 1148
91 1162
91 1265
91 1286
91 1328
92 200
92 339
92 411
92 473
92 607
92 694
92 778
92 856
92 892
92 1073
92 1081
92 1211
92 1293
93 241
93 309
93 353
93 500
93 1268
93 1351
93 1391
94 151
94 600
94 687
94 725
94 1177
94 1197
94 1226
95 234
95 289
95 349
95 728
95 854
95 894
95 981
95 1015
95 1137
96 253
96 383
96 469
96 564
96 670
96 862
96 892
96 1004
96 1077
96 1088
96 1267
96 1293
96 1321
96 1323
96 1326
96 1392
97 161
97 305
97 426
97 640
97 761
97 818
97 904
97 1073
97 1081
97 1146
97 1290
97 1346
98 287
98 548
98 560
98 641
98 780
98 996
98 1202
98 1229
98 1309
99 103
99 112
99 116
99 212
99 229
99 246
99 258
99 351
99 376
99 388
99 402
99 497
99 603
99 618
99 657
99 750
99 762
99 763
99 782
99 839
99 872
99 901
99 942
99 951
99 960
99 978
99 1003
99 1020
99 1058
99 1084
99 1089
99 1127
99 1162
99 1231
99 1256
99 1372
99 1379
99 1391
100 185
100 257
100 280
100 289
100 329
100 349
100 443
100 458
100 499
100 705
100 820
100 847
100 1010
100 1053
100 1055
100 1116
100 1161
100 1336
100 1373
101 108
101 112
101 136
101 166
101 174
101 178
101 220
101 228
101 230
101 268
101 322
101 350
101 363
101 376
101 408
101 419
101 431
101 485
101 490
101 497
101 531
101 571
101 582
101 618
101 686
101 744
101 762
101 793
101 803
101 837
101 839
101 868
101 895
101 901
101 922
101 928
101 933
101 939
101 942
101 945
101 982
101 985
101 1003
101 1042
101 1067
101 1079
101 1134
101 1268
101 1274
101 1338
101 1362
101 1367
101 1379
102 282
102 489
102 723
102 867
102 1329
103 181
103 246
103 298
103 361
103 419
103 431
103 504
103 546
103 557
103 571
103 591
103 617
103 724
103 741
103 777
103 833
103 872
103 922
103 927
103 942
103 1027
103 1032
103 1079
103 1134
103 1178
103 1307
103 1328
103 1362
104 106
104 122
104 157
104 288
104 382
104 454
104 474
104 491
104 502
104 512
104 551
104 740
104 755
104 764
104 786
104 840
104 906
104 949
104 975
104 1007
104 1023
104 1160
104 1315
104 1325
104 1348
104 1350
104 1385
105 108
105 165
105 172
105 174
105 181
105 187
105 192
105 193
105 218
105 220
105 229
105 236
105 241
105 246
105 279
105 309
105 311
105 320
105 323
105 346
105 350
105 353
105 379
105 380
105 388
105 406
105 431
105 500
105 507
105 517
105 546
105 554
105 605
105 617
105 632
105 654
105 683
105 722
105 724
105 733
105 750
105 768
105 775
105 777
105 788
105 800
105 803
105 819
105 829
105 833
105 880
105 901
105 913
105 942
105 943
105 945
105 950
105 982
105 1020
105 1042
105 1067
105 1076
105 1079
105 1096
105 1119
105 1162
105 1163
105 1178
105 1220
105 1231
105 1252
105 1274
105 1286
105 1316
105 1328
105 1352
105 1367
105 1372
105 1379
105 1394
106 111
106 124
106 442
106 474
106 502
106 770
106 795
107 117
107 190
107 305
107 356
107 404
107 444
107 513
107 614
107 642
107 761
107 812
107 860
107 916
107 980
107 1025
107 1048
107 1075
107 1121
107 1189
108 166
108 169
108 187
108 236
108 252
108 298
108 316
108 323
108 326
108 337
108 363
108 399
108 408
108 485
108 507
108 571
108 582
108 605
108 724
108 762
108 763
108 768
108 769
108 793
108 806
108 812
108 852
108 878
108 933
108 945
108 950
108 982
108 992
108 1008
108 1042
108 1127
108 1143
108 1157
108 1191
108 1231
108 1268
108 1328
108 1362
109 330
109 370
109 453
109 528
109 634
109 646
109 718
109 810
109 851
109 871
109 886
109 952
109 970
109 1028
109 1101
109 1126
109 1190
109 1209
109 1230
109 1260
110 140
110 203
110 269
110 300
110 318
110 328
110 377
110 421
110 473
110 583
110 694
110 825
110 1007
110 1030
110 1160
110 1193
110 1204
110 1210
110 1266
110 1275
111 132
111 294
111 409
111 410
111 440
111 502
111 581
111 593
111 626
111 658
111 671
111 770
111 969
111 994
111 1022
111 1052
111 1131
111 1255
111 1299
111 1327
112 181
112 187
112 217
112 220
112 224
112 229
112 239
112 240
112 252
112 271
112 291
112 309
112 311
112 320
112 322
112 350
112 351
112 353
112 399
112 497
112 500
112 507
112 517
112 529
112 532
112 599
112 617
112 618
112 693
112 697
112 730
112 762
112 775
112 791
112 806
112 868
112 885
112 889
112 942
112 982
112 1011
112 1027
112 1067
112 1078
112 1127
112 1134
112 1162
112 1178
112 1196
112 1252
112 1263
112 1338
112 1367
112 1372
112 1382
112 1391
113 203
113 251
113 287
113 295
113 300
113 362
113 429
113 444
113 464
113 469
113 494
113 687
113 980
113 1068
113 1182
113 1197
113 1198
113 1207
113 1229
113 1279
114 278
114 318
114 668
114 766
114 937
114 1021
114 1071
114 1091
114 1250
114 1266
114 1300
114 1330
115 402
115 831
115 1231
116 166
116 216
116 230
116 236
116 246
116 260
116 309
116 311
116 320
116 346
116 350
116 361
116 376
116 419
116 470
116 500
116 543
116 546
116 554
116 571
116 582
116 686
116 724
116 733
116 834
116 861
116 868
116 913
116 920
116 992
116 1020
116 1119
116 1134
116 1135
116 1143
116 1148
116 1162
116 1191
116 1263
116 1269
116 1316
116 1382
116 1394
117 119
117 157
117 256
117 286
117 301
117 426
117 544
117 614
117 786
117 818
117 860
117 956
117 1063
117 1243
118 312
118 621
118 809
118 1222
118 1234
119 123
119 254
119 614
119 1049
119 1151
119 1235
119 1377
120 178
120 191
120 192
120 215
120 220
120 229
120 246
120 260
120 291
120 316
120 323
120 363
120 376
120 408
120 430
120 531
120 595
120 617
120 618
120 648
120 654
120 665
120 729
120 735
120 762
120 788
120 812
120 819
120 833
120 868
120 872
120 878
120 945
120 950
120 951
120 1001
120 1014
120 1027
120 1078
120 1082
120 1127
120 1154
120 1220
120 1223
120 1286
120 1320
120 1328
120 1340
120 1362
120 1379
120 1391
121 198
121 510
121 821
121 1036
121 1097
122 164
122 269
122 450
122 463
122 474
122 534
122 832
122 871
122 949
122 970
122 972
123 384
123 499
123 718
123 847
123 886
123 944
123 1164
123 1183
123 1245
123 1339
123 1377
124 184
124 304
124 355
124 442
124 455
124 466
124 502
124 513
124 539
124 639
124 642
124 779
124 883
124 1043
124 1095
124 1341
125 254
125 332
125 555
125 612
125 671
125 824
125 1093
125 1235
125 1255
125 1306
125 1333
125 1353
126 128
126 358
126 469
126 482
126 547
126 616
126 715
126 807
126 876
126 954
126 1007
126 1086
126 1099
126 1160
126 1261
127 403
127 575
127 835
127 938
127 955
127 976
127 1054
127 1055
127 1116
128 161
128 176
128 188
128 234
128 242
128 270
128 310
128 358
128 460
128 574
128 579
128 602
128 668
128 669
128 749
128 771
128 785
128 807
128 894
128 904
128 984
128 1044
128 1145
128 1181
128 1205
128 1239
128 1284
128 1302
128 1324
128 1349
128 1368
129 149
129 173
129 208
129 318
129 329
129 336
129 340
129 389
129 407
129 443
129 445
129 558
129 711
129 754
129 776
129 787
129 853
129 892
129 988
129 1038
129 1171
129 1205
129 1266
129 1272
129 1293
129 1323
129 1326
129 1349
129 1396
130 364
130 512
130 520
130 565
130 732
130 802
130 826
130 864
130 979
130 1005
130 1173
130 1348
131 341
131 392
131 410
131 440
131 630
131 932
131 1169
131 1174
132 175
132 197
132 289
132 302
132 317
132 349
132 407
132 436
132 493
132 501
132 576
132 664
132 707
132 714
132 743
132 760
132 770
132 853
132 862
132 931
132 1006
132 1041
132 1103
132 1299
132 1321
132 1347
132 1364
133 360
133 437
133 567
133 692
133 814
133 842
133 1029
133 1138
133 1337
134 303
134 338
134 461
134 492
134 812
134 1048
134 1149
134 1393
135 198
135 344
135 449
135 667
135 747
135 899
135 917
135 1097
135 1114
135 1115
135 1133
135 1166
135 1334
136 230
136 320
136 431
136 611
136 665
136 686
136 762
136 839
136 868
136 877
136 901
136 913
136 1371
137 218
137 366
137 745
138 169
138 181
138 224
138 326
138 331
138 419
138 903
138 927
138 1106
138 1127
139 168
139 242
139 310
139 448
139 509
140 511
140 562
140 650
140 653
140 680
140 825
140 1059
140 1147
140 1184
140 1186
140 1200
140 1210
140 1257
140 1318
140 1374
140 1397
141 246
141 291
141 298
141 399
141 485
141 617
141 827
141 982
141 1154
141 1162
141 1252
141 1256
142 567
142 873
142 898
142 1138
142 1254
143 356
143 469
143 523
143 709
143 974
143 1167
143 1248
144 151
144 243
144 491
144 551
144 681
144 751
144 1048
144 1177
144 1205
144 1258
144 1304
144 1313
144 1349
145 305
145 623
145 761
145 959
145 1370
146 335
146 666
146 712
146 797
146 975
146 1110
146 1325
147 262
147 367
147 418
147 541
147 577
147 626
147 644
147 685
147 1052
148 195
148 470
148 506
148 626
148 771
148 830
148 1052
148 1056
148 1368
149 164
149 317
149 463
149 475
149 558
149 577
149 588
149 685
149 714
149 719
149 836
149 908
149 1038
149 1073
149 1081
150 225
150 264
150 296
150 492
150 496
150 561
150 590
150 725
150 740
150 783
150 840
150 1007
150 1023
150 1105
150 1149
150 1160
150 1218
150 1304
150 1313
150 1315
151 162
151 243
151 569
151 600
151 765
151 798
151 842
151 930
151 1100
151 1177
151 1337
152 169
152 174
152 192
152 212
152 228
152 323
152 371
152 419
152 488
152 517
152 546
152 617
152 683
152 763
152 829
152 833
152 852
152 950
152 989
152 1046
152 1067
152 1079
152 1127
152 1178
152 1231
152 1233
152 1268
152 1340
153 219
153 259
153 312
153 405
153 671
153 841
153 871
153 970
153 998
153 1070
153 1222
153 1255
154 207
154 308
154 395
154 606
154 897
154 940
154 975
154 1325
155 164
155 237
155 283
155 463
155 492
155 570
155 596
155 659
155 773
155 792
155 864
155 930
155 979
155 1024
155 1149
155 1208
155 1262
155 1288
156 217
156 229
156 529
156 1008
156 1079
156 1352
157 176
157 444
157 474
157 614
157 786
157 980
157 1181
158 179
158 249
158 513
158 621
158 623
158 642
158 959
158 1234
158 1297
159 277
159 476
159 573
159 997
159 1039
159 1083
159 1153
159 1158
159 1363
160 377
160 451
160 566
160 790
160 835
160 896
160 1054
160 1087
160 1204
161 285
161 407
161 567
161 767
161 807
161 808
161 853
161 855
161 904
161 1136
161 1138
161 1310
161 1343
161 1346
162 454
162 725
162 740
162 1023
162 1100
162 1177
163 174
163 181
163 193
163 217
163 220
163 241
163 316
163 323
163 331
163 351
163 363
163 431
163 490
163 517
163 627
163 693
163 729
163 762
163 812
163 815
163 819
163 837
163 877
163 889
163 901
163 922
163 935
163 942
163 943
163 1035
163 1119
163 1143
163 1191
163 1223
163 1238
163 1252
163 1265
163 1372
164 304
164 404
164 426
164 463
164 539
164 558
164 659
164 765
164 818
164 949
164 1074
164 1121
165 166
165 181
165 187
165 192
165 236
165 240
165 260
165 279
165 309
165 346
165 351
165 402
165 408
165 419
165 431
165 517
165 557
165 595
165 603
165 654
165 665
165 686
165 697
165 724
165 730
165 774
165 782
165 788
165 815
165 834
165 920
165 926
165 950
165 951
165 960
165 982
165 1034
165 1042
165 1058
165 1089
165 1135
165 1148
165 1191
165 1194
165 1196
165 1220
165 1231
165 1238
165 1241
165 1252
165 1256
165 1268
165 1307
165 1351
165 1360
165 1371
165 1379
166 174
166 192
166 220
166 224
166 236
166 240
166 298
166 316
166 326
166 371
166 431
166 546
166 557
166 582
166 648
166 654
166 729
166 730
166 753
166 762
166 763
166 777
166 831
166 837
166 903
166 922
166 951
166 985
166 992
166 1027
166 1032
166 1034
166 1042
166 1067
166 1192
166 1256
166 1265
166 1280
166 1362
166 1367
167 380
167 497
167 627
167 733
167 831
167 1076
167 1338
168 225
168 253
168 448
168 451
168 509
168 536
168 752
168 896
168 1004
168 1066
168 1146
168 1201
168 1360
169 186
169 228
169 230
169 298
169 309
169 353
169 361
169 399
169 419
169 470
169 485
169 490
169 497
169 507
169 517
169 595
169 617
169 661
169 665
169 724
169 746
169 782
169 788
169 823
169 833
169 852
169 872
169 945
169 982
169 1008
169 1011
169 1020
169 1042
169 1089
169 1119
169 1134
169 1148
169 1196
169 1223
169 1252
169 1340
169 1351
169 1372
170 242
170 244
170 310
170 416
170 592
170 850
170 962
170 1278
170 1301
171 244
171 374
171 381
171 417
171 566
171 790
171 957
171 1050
171 1301
172 309
172 557
172 591
172 603
172 627
172 989
172 1084
172 1233
172 1316
173 197
173 301
173 544
173 602
173 645
173 662
173 743
173 776
173 851
173 865
173 938
173 955
173 1038
173 1101
173 1113
173 1150
173 1224
173 1273
173 1308
173 1324
174 181
174 212
174 216
174 217
174 252
174 268
174 298
174 316
174 320
174 351
174 363
174 430
174 485
174 497
174 507
174 605
174 686
174 704
174 746
174 763
174 782
174 819
174 829
174 831
174 834
174 852
174 868
174 889
174 922
174 935
174 943
174 947
174 963
174 982
174 1027
174 1035
174 1042
174 1046
174 1084
174 1089
174 1191
174 1223
174 1360
174 1379
174 1380
174 1382
175 336
175 493
175 711
175 981
175 1015
175 1299
175 1305
176 372
176 383
176 387
176 564
176 569
176 786
176 798
176 807
176 1181
177 615
177 673
177 767
177 869
177 1045
177 1213
177 1310
178 186
178 215
178 216
178 217
178 225
178 246
178 268
178 309
178 353
178 380
178 467
178 485
178 490
178 504
178 617
178 627
178 648
178 661
178 665
178 686
178 762
178 763
178 777
178 782
178 803
178 833
178 861
178 878
178 895
178 922
178 927
178 989
178 1078
178 1082
178 1084
178 1106
178 1119
178 1135
178 1162
178 1223
178 1233
178 1252
178 1265
178 1268
178 1280
178 1340
178 1357
179 249
179 272
179 274
179 305
179 390
179 486
179 501
179 653
179 664
179 705
179 761
179 812
179 820
179 875
179 890
179 1048
179 1184
179 1287
179 1297
179 1390
180 389
180 421
180 583
180 684
180 754
180 799
180 1112
180 1246
180 1319
181 212
181 215
181 217
181 228
181 229
181 241
181 268
181 291
181 298
181 314
181 320
181 337
181 350
181 366
181 376
181 406
181 430
181 462
181 467
181 477
181 507
181 554
181 571
181 603
181 617
181 633
181 735
181 753
181 762
181 768
181 788
181 800
181 831
181 839
181 878
181 922
181 935
181 942
181 960
181 989
181 1003
181 1008
181 1027
181 1032
181 1034
181 1078
181 1135
181 1223
181 1233
181 1252
181 1263
181 1268
181 1286
181 1320
181 1335
181 1340
181 1351
181 1367
182 266
182 269
182 410
182 440
182 480
182 538
182 548
182 560
182 725
182 1013
182 1118
182 1155
182 1158
182 1363
183 204
183 365
183 489
183 494
183 609
183 765
183 1068
183 1329
184 195
184 247
184 422
184 442
184 505
184 556
184 638
184 739
184 764
184 765
184 784
184 802
184 817
184 830
184 832
184 966
184 972
184 1005
184 1095
184 1369
184 1385
185 234
185 259
185 341
185 457
185 512
185 537
185 687
185 845
185 894
185 1070
185 1161
185 1169
185 1180
185 1197
185 1336
185 1348
186 191
186 192
186 217
186 229
186 236
186 240
186 246
186 271
186 309
186 331
186 337
186 351
186 388
186 402
186 406
186 432
186 467
186 470
186 490
186 529
186 611
186 661
186 735
186 782
186 793
186 861
186 889
186 903
186 927
186 928
186 960
186 985
186 1035
186 1067
186 1082
186 1084
186 1127
186 1233
186 1320
186 1340
186 1351
187 218
187 228
187 252
187 268
187 322
187 351
187 391
187 406
187 467
187 497
187 517
187 554
187 595
187 603
187 605
187 611
187 617
187 730
187 742
187 782
187 789
187 829
187 877
187 901
187 943
187 947
187 950
187 1008
187 1020
187 1079
187 1096
187 1106
187 1127
187 1132
187 1143
187 1178
187 1223
187 1263
187 1286
187 1362
188 491
188 525
188 551
188 569
188 669
188 798
188 807
188 1090
189 198
189 407
189 461
189 853
189 929
189 1097
189 1188
189 1389
190 404
190 521
190 860
190 1025
190 1057
190 1121
190 1167
190 1248
191 218
191 279
191 408
191 424
191 431
191 485
191 490
191 500
191 507
191 571
191 591
191 603
191 605
191 611
191 617
191 661
191 683
191 724
191 730
191 735
191 789
191 829
191 833
191 852
191 872
191 895
191 913
191 927
191 935
191 942
191 950
191 951
191 982
191 1008
191 1020
191 1027
191 1076
191 1106
191 1143
191 1148
191 1178
191 1241
191 1256
191 1265
191 1338
191 1362
191 1380
191 1391
192 193
192 215
192 220
192 235
192 240
192 260
192 268
192 311
192 315
192 316
192 322
192 323
192 350
192 353
192 359
192 366
192 402
192 408
192 419
192 427
192 500
192 507
192 531
192 546
192 617
192 661
192 665
192 683
192 733
192 762
192 763
192 768
192 777
192 788
192 789
192 823
192 833
192 852
192 877
192 913
192 942
192 951
192 963
192 1027
192 1046
192 1082
192 1089
192 1162
192 1191
192 1233
192 1256
192 1265
192 1320
192 1372
192 1394
193 217
193 220
193 230
193 239
193 268
193 279
193 291
193 298
193 316
193 323
193 376
193 402
193 485
193 507
193 518
193 571
193 599
193 605
193 611
193 632
193 633
193 648
193 686
193 693
193 730
193 769
193 800
193 812
193 834
193 885
193 889
193 960
193 1027
193 1040
193 1048
193 1058
193 1076
193 1096
193 1107
193 1127
193 1134
193 1178
193 1191
193 1220
193 1223
193 1231
193 1280
193 1328
193 1338
193 1378
194 284
194 414
194 495
194 556
194 739
194 758
194 838
194 848
194 1221
195 238
195 254
195 328
195 506
195 512
195 553
195 740
195 830
195 958
195 971
195 1023
195 1095
195 1193
195 1235
195 1348
196 338
196 394
196 619
196 795
196 879
196 1217
196 1393
197 481
197 527
197 743
197 776
197 948
197 1064
197 1299
198 305
198 548
198 560
198 667
198 734
198 761
198 821
198 1053
198 1097
198 1167
198 1188
198 1247
198 1248
198 1373
199 270
199 305
199 428
199 489
199 527
199 594
199 761
199 780
199 785
199 965
199 991
199 996
199 1064
199 1207
199 1279
199 1329
199 1355
200 278
200 607
200 702
200 778
200 1092
200 1300
201 275
201 439
201 478
201 484
201 547
201 652
201 707
201 752
201 792
201 931
201 1051
201 1288
201 1289
201 1303
202 278
202 598
202 676
202 703
202 919
202 1012
202 1069
202 1152
202 1224
202 1251
202 1273
202 1300
203 300
203 421
203 464
203 583
203 825
203 916
203 1189
204 365
204 489
204 494
204 609
204 765
204 1068
204 1329
205 299
205 580
205 1155
205 1292
206 295
206 333
206 415
206 468
206 521
206 556
206 703
206 739
206 747
206 911
206 987
206 988
206 1012
206 1057
206 1133
206 1198
206 1396
207 255
207 259
207 308
207 318
207 321
207 369
207 395
207 422
207 615
207 909
207 1070
207 1266
207 1342
207 1365
208 264
208 296
208 304
208 539
208 787
208 929
208 1038
208 1389
209 253
209 301
209 450
209 534
209 544
209 580
209 678
209 718
209 740
209 871
209 886
209 967
209 970
209 1004
209 1023
209 1065
209 1292
210 281
210 495
210 549
210 608
210 797
210 1075
210 1221
211 318
211 420
211 483
211 623
211 772
211 959
211 1073
211 1081
211 1266
212 217
212 223
212 224
212 228
212 246
212 252
212 311
212 314
212 325
212 326
212 346
212 350
212 353
212 363
212 398
212 408
212 419
212 477
212 497
212 504
212 554
212 571
212 603
212 605
212 611
212 618
212 627
212 632
212 693
212 722
212 774
212 789
212 804
212 806
212 819
212 834
212 839
212 877
212 878
212 889
212 927
212 935
212 945
212 951
212 985
212 1011
212 1020
212 1034
212 1079
212 1089
212 1106
212 1127
212 1154
212 1223
212 1280
212 1316
212 1320
212 1340
212 1357
212 1362
213 271
213 406
213 648
214 277
214 297
214 305
214 496
214 674
214 731
214 761
214 783
214 801
214 883
214 953
214 1002
214 1045
214 1128
214 1129
214 1153
214 1213
214 1332
214 1341
215 230
215 258
215 331
215 350
215 361
215 406
215 408
215 431
215 488
215 500
215 514
215 532
215 554
215 595
215 605
215 618
215 693
215 768
215 777
215 782
215 806
215 815
215 839
215 1042
215 1107
215 1263
215 1338
215 1394
216 225
216 229
216 236
216 240
216 241
216 268
216 351
216 361
216 399
216 500
216 507
216 599
216 618
216 633
216 665
216 806
216 823
216 831
216 833
216 859
216 889
216 895
216 913
216 928
216 950
216 1001
216 1003
216 1034
216 1058
216 1076
216 1143
216 1286
216 1320
216 1340
216 1380
217 218
217 229
217 230
217 240
217 246
217 252
217 258
217 291
217 309
217 311
217 316
217 320
217 331
217 361
217 371
217 388
217 419
217 441
217 485
217 504
217 517
217 518
217 532
217 557
217 571
217 591
217 611
217 617
217 627
217 633
217 648
217 654
217 665
217 722
217 763
217 769
217 775
217 789
217 803
217 852
217 872
217 889
217 901
217 928
217 942
217 943
217 963
217 989
217 992
217 1008
217 1014
217 1027
217 1079
217 1089
217 1096
217 1135
217 1157
217 1162
217 1231
217 1265
217 1280
217 1286
217 1367
217 1382
217 1394
218 252
218 291
218 633
218 745
218 806
218 840
218 1315
219 321
219 841
219 909
219 914
219 938
219 955
219 983
219 998
220 224
220 266
220 268
220 271
220 291
220 298
220 320
220 326
220 337
220 363
220 402
220 406
220 438
220 477
220 488
220 514
220 631
220 649
220 665
220 683
220 730
220 750
220 762
220 777
220 815
220 831
220 833
220 877
220 898
220 927
220 950
220 951
220 992
220 1008
220 1027
220 1089
220 1118
220 1127
220 1191
220 1196
220 1228
220 1254
220 1320
220 1338
220 1360
220 1380
220 1388
221 460
221 574
221 643
221 698
221 1298
222 457
222 634
222 684
222 736
222 845
222 982
222 990
222 1112
222 1209
223 279
223 1379
224 246
224 268
224 279
224 309
224 322
224 352
224 353
224 430
224 431
224 467
224 485
224 500
224 504
224 507
224 514
224 554
224 557
224 611
224 617
224 665
224 693
224 724
224 753
224 768
224 806
224 819
224 831
224 834
224 837
224 852
224 889
224 895
224 927
224 947
224 1003
224 1046
224 1067
224 1082
224 1106
224 1199
224 1256
224 1263
224 1265
224 1286
224 1338
224 1351
224 1352
224 1391
225 258
225 288
225 337
225 338
225 374
225 381
225 401
225 455
225 490
225 497
225 507
225 509
225 532
225 590
225 595
225 602
225 603
225 611
225 686
225 718
225 731
225 762
225 769
225 773
225 779
225 812
225 871
225 886
225 901
225 970
225 1002
225 1020
225 1076
225 1162
225 1265
225 1280
225 1294
225 1324
225 1328
225 1393
225 1394
226 378
226 450
226 534
226 629
226 684
226 997
226 1039
226 1112
227 232
227 270
227 272
227 305
227 345
227 705
227 718
227 761
227 785
227 820
227 832
227 886
227 890
227 936
227 972
227 975
227 1325
228 229
228 236
228 258
228 260
228 291
228 311
228 331
228 399
228 408
228 419
228 430
228 431
228 485
228 500
228 514
228 529
228 571
228 611
228 633
228 665
228 697
228 733
228 735
228 762
228 789
228 793
228 812
228 819
228 823
228 829
228 833
228 839
228 852
228 872
228 889
228 927
228 942
228 950
228 1001
228 1003
228 1027
228 1035
228 1079
228 1084
228 1094
228 1238
228 1320
228 1351
228 1360
229 252
229 279
229 291
229 298
229 311
229 350
229 371
229 441
229 485
229 488
229 507
229 529
229 532
229 543
229 582
229 586
229 611
229 632
229 633
229 654
229 661
229 693
229 697
229 724
229 733
229 768
229 803
229 823
229 829
229 837
229 885
229 928
229 942
229 943
229 945
229 982
229 1034
229 1046
229 1084
229 1191
229 1252
229 1268
229 1320
229 1328
229 1360
230 241
230 427
230 431
230 485
230 487
230 518
230 546
230 586
230 591
230 627
230 730
230 735
230 782
230 812
230 833
230 877
230 878
230 903
230 913
230 1014
230 1082
230 1286
230 1320
231 259
231 414
231 423
231 838
231 1070
232 270
232 272
232 305
232 345
232 705
232 718
232 761
232 785
232 820
232 832
232 886
232 890
232 936
232 972
232 975
232 1325
233 288
233 292
233 302
233 634
233 1033
233 1103
233 1209
234 257
234 306
234 773
234 807
234 854
234 894
234 912
234 1010
234 1047
234 1130
234 1161
234 1206
234 1295
235 353
235 557
235 661
235 950
235 1135
235 1140
235 1143
235 1379
236 309
236 346
236 353
236 431
236 488
236 543
236 618
236 632
236 648
236 654
236 665
236 683
236 693
236 831
236 834
236 895
236 901
236 942
236 982
236 1082
236 1104
236 1178
236 1223
236 1228
236 1252
236 1286
236 1320
236 1372
237 570
237 659
237 1208
237 1262
238 830
238 971
238 1260
239 311
239 361
239 518
239 531
239 532
239 599
239 648
239 665
239 753
239 763
239 777
239 789
239 803
239 823
239 901
239 943
239 1082
239 1134
239 1135
239 1191
239 1233
239 1256
239 1286
239 1338
239 1379
239 1391
240 246
240 252
240 291
240 298
240 320
240 337
240 353
240 399
240 507
240 611
240 617
240 618
240 648
240 683
240 722
240 730
240 774
240 803
240 827
240 829
240 837
240 868
240 935
240 985
240 1119
240 1134
240 1196
240 1252
240 1263
240 1328
240 1340
241 252
241 260
241 298
241 346
241 351
241 353
241 376
241 380
241 391
241 406
241 441
241 504
241 507
241 514
241 518
241 532
241 546
241 554
241 582
241 595
241 654
241 661
241 724
241 741
241 768
241 777
241 804
241 815
241 823
241 829
241 831
241 833
241 834
241 852
241 878
241 889
241 947
241 982
241 985
241 1027
241 1042
241 1058
241 1067
241 1078
241 1079
241 1127
241 1154
241 1196
241 1220
241 1265
241 1280
241 1286
241 1307
241 1320
241 1340
241 1391
242 273
242 310
242 448
242 470
242 484
242 550
242 592
242 688
242 807
242 1056
242 1073
242 1081
242 1282
242 1303
242 1304
242 1313
242 1323
242 1326
243 491
243 551
243 681
243 751
243 1048
243 1177
243 1205
243 1258
243 1304
243 1313
243 1349
244 255
244 287
244 306
244 367
244 369
244 428
244 435
244 457
244 592
244 594
244 597
244 604
244 638
244 644
244 784
244 845
244 1050
244 1073
244 1081
244 1229
244 1276
244 1295
244 1301
245 648
245 1035
245 1143
246 291
246 351
246 352
246 353
246 363
246 467
246 485
246 500
246 504
246 532
246 543
246 557
246 591
246 618
246 632
246 657
246 660
246 730
246 782
246 815
246 823
246 834
246 872
246 895
246 922
246 935
246 942
246 943
246 945
246 947
246 1008
246 1076
246 1148
246 1274
246 1286
246 1316
246 1340
247 287
247 451
247 896
247 1073
247 1081
247 1095
247 1167
247 1229
247 1248
248 341
248 383
248 564
248 589
248 691
248 846
248 944
248 1169
248 1339
249 272
249 274
249 305
249 390
249 486
249 501
249 653
249 664
249 705
249 761
249 812
249 820
249 875
249 890
249 1048
249 1184
249 1287
249 1297
249 1390
250 263
250 283
250 305
250 332
250 338
250 653
250 761
250 824
250 844
250 1141
250 1184
250 1393
251 464
251 601
251 1179
251 1182
252 309
252 322
252 326
252 331
252 351
252 361
252 399
252 408
252 431
252 477
252 504
252 517
252 519
252 571
252 595
252 618
252 633
252 654
252 722
252 730
252 750
252 782
252 788
252 793
252 806
252 829
252 877
252 880
252 891
252 895
252 913
252 922
252 942
252 943
252 945
252 978
252 985
252 1003
252 1008
252 1027
252 1034
252 1035
252 1046
252 1076
252 1078
252 1089
252 1220
252 1263
252 1316
252 1340
252 1367
252 1372
253 428
253 509
253 594
253 695
253 751
253 912
253 938
253 955
253 967
253 977
253 1004
253 1047
253 1088
253 1155
253 1165
253 1258
253 1358
254 364
254 375
254 393
254 450
254 454
254 534
254 547
254 562
254 602
254 732
254 830
254 851
254 956
254 1093
254 1101
254 1102
254 1158
254 1235
254 1243
254 1259
254 1324
254 1363
254 1374
255 286
255 289
255 349
255 356
255 369
255 395
255 454
255 794
255 864
255 979
255 1301
255 1376
256 426
256 589
256 602
256 614
256 691
256 760
256 818
256 946
256 1055
256 1063
256 1116
256 1253
256 1305
256 1324
257 281
257 283
257 289
257 349
257 461
257 468
257 608
257 647
257 701
257 858
257 894
257 911
257 1010
257 1311
257 1336
257 1381
258 326
258 363
258 431
258 504
258 554
258 582
258 769
258 829
258 852
258 877
258 900
258 926
258 933
258 978
258 982
258 989
258 1067
258 1076
258 1079
258 1140
258 1154
258 1233
258 1335
258 1340
258 1367
259 347
259 395
259 423
259 530
259 559
259 619
259 767
259 797
259 841
259 968
259 1070
259 1124
259 1139
259 1161
259 1226
259 1310
259 1344
259 1354
260 309
260 320
260 337
260 399
260 488
260 507
260 518
260 599
260 611
260 627
260 763
260 769
260 788
260 823
260 831
260 837
260 839
260 889
260 901
260 934
260 942
260 943
260 1014
260 1067
260 1127
260 1154
260 1228
260 1233
260 1263
260 1307
260 1335
261 275
261 728
261 1051
261 1137
261 1224
261 1260
261 1273
261 1285
262 281
262 329
262 418
262 443
262 541
262 567
262 608
262 1074
262 1138
262 1164
262 1245
263 516
263 795
263 844
263 919
263 1141
263 1152
263 1237
264 296
264 512
264 590
264 787
264 832
264 898
264 962
264 972
264 1059
264 1200
264 1254
264 1278
264 1305
264 1348
265 885
265 1003
265 1320
266 307
266 405
266 480
266 637
266 681
266 923
266 946
266 1118
266 1144
266 1253
267 337
267 889
267 1042
268 316
268 337
268 350
268 353
268 427
268 470
268 531
268 617
268 665
268 762
268 789
268 806
268 815
268 852
268 920
268 935
268 947
268 951
268 982
268 1084
268 1096
268 1148
268 1154
268 1162
268 1263
268 1286
268 1328
268 1338
268 1360
268 1362
268 1391
269 446
269 454
269 480
269 496
269 783
269 825
269 893
269 949
270 392
270 537
270 630
270 725
270 749
270 785
270 802
270 807
270 902
270 961
270 991
270 1005
270 1027
270 1044
270 1180
270 1214
271 326
271 337
271 353
271 391
271 399
271 412
271 490
271 504
271 531
271 599
271 683
271 733
271 777
271 789
271 793
271 833
271 945
271 1034
271 1076
271 1084
271 1162
271 1223
271 1233
271 1286
271 1328
271 1338
271 1394
272 721
272 890
272 988
272 1019
272 1396
273 310
273 444
273 501
273 565
273 581
273 593
273 664
273 826
273 875
273 897
273 940
273 980
273 1282
273 1305
273 1390
274 404
274 862
274 1121
274 1150
274 1287
274 1308
274 1321
275 284
275 338
275 356
275 368
275 434
275 439
275 675
275 758
275 811
275 1051
275 1285
275 1342
275 1365
275 1393
276 421
276 583
276 792
276 863
276 1288
277 278
277 344
277 446
277 653
277 674
277 893
277 1083
277 1115
277 1153
277 1184
277 1300
278 338
278 607
278 610
278 641
278 1102
278 1153
278 1202
278 1250
278 1259
278 1300
278 1383
278 1393
279 322
279 326
279 376
279 399
279 430
279 477
279 485
279 504
279 586
279 605
279 686
279 735
279 744
279 768
279 775
279 789
279 812
279 819
279 831
279 951
279 992
279 1058
279 1084
279 1089
279 1162
279 1192
279 1220
279 1233
279 1238
279 1320
279 1351
279 1379
280 458
280 577
280 635
280 685
280 751
280 765
280 994
280 1131
280 1258
280 1291
280 1336
281 288
281 367
281 370
281 378
281 418
281 549
281 608
281 644
281 670
281 1010
281 1190
281 1267
282 375
282 378
282 393
282 454
282 548
282 560
282 696
282 723
282 857
282 867
282 944
282 1056
282 1109
282 1339
283 394
283 438
283 550
283 553
283 596
283 649
283 659
283 688
283 751
283 760
283 844
283 879
283 1010
283 1024
283 1258
284 367
284 444
284 527
284 644
284 740
284 758
284 848
284 980
284 1023
284 1051
284 1064
285 317
285 537
285 714
285 855
285 904
285 1180
285 1387
286 369
286 377
286 553
286 614
286 832
286 972
286 1049
286 1151
286 1204
287 414
287 464
287 622
287 781
287 838
287 871
287 970
287 1205
287 1229
287 1301
287 1309
287 1349
288 292
288 474
288 608
288 616
288 954
288 994
288 1131
288 1218
289 338
289 344
289 349
289 355
289 369
289 567
289 616
289 622
289 781
289 795
289 832
289 854
289 954
289 972
289 1010
289 1043
289 1115
289 1138
289 1158
289 1299
289 1336
289 1363
289 1393
290 362
290 429
290 513
290 642
290 765
290 802
290 882
290 1005
291 309
291 322
291 326
291 351
291 363
291 376
291 402
291 485
291 487
291 504
291 517
291 518
291 531
291 578
291 582
291 586
291 595
291 599
291 605
291 618
291 633
291 665
291 735
291 788
291 815
291 831
291 833
291 837
291 868
291 872
291 877
291 889
291 903
291 920
291 942
291 943
291 947
291 1001
291 1003
291 1008
291 1020
291 1082
291 1084
291 1085
291 1134
291 1191
291 1192
291 1252
291 1277
291 1286
291 1320
291 1338
291 1380
291 1382
292 302
292 634
292 1033
292 1103
292 1209
293 500
293 1078
293 1084
293 1307
294 328
294 414
294 481
294 537
294 770
294 838
294 948
294 969
294 1180
294 1193
294 1305
295 329
295 365
295 403
295 415
295 443
295 464
295 491
295 551
295 609
295 684
295 773
295 976
295 1112
295 1198
296 512
296 590
296 787
296 832
296 898
296 962
296 972
296 1059
296 1200
296 1254
296 1278
296 1305
296 1348
297 365
297 489
297 609
297 641
297 668
297 674
297 677
297 953
297 1120
297 1122
297 1202
297 1215
297 1244
297 1249
297 1329
298 376
298 399
298 485
298 504
298 514
298 605
298 733
298 744
298 768
298 804
298 819
298 829
298 839
298 852
298 861
298 935
298 950
298 951
298 1014
298 1020
298 1027
298 1032
298 1046
298 1119
298 1134
298 1192
298 1307
298 1340
298 1352
298 1391
299 580
299 1155
299 1292
300 421
300 464
300 583
300 825
300 916
300 1189
301 544
301 614
301 646
301 718
301 749
301 776
301 886
301 902
301 914
301 952
301 967
301 983
301 1009
301 1044
301 1117
301 1126
301 1214
301 1230
302 305
302 548
302 560
302 622
302 636
302 761
302 781
302 902
302 918
302 1103
302 1207
302 1214
302 1279
302 1299
303 338
303 461
303 492
303 812
303 1048
303 1149
303 1393
304 305
304 442
304 463
304 539
304 761
304 787
304 1098
304 1128
304 1129
304 1203
305 378
305 403
305 539
305 674
305 705
305 731
305 751
305 761
305 796
305 820
305 844
305 860
305 976
305 991
305 1002
305 1059
305 1097
305 1103
305 1200
305 1227
305 1258
305 1346
305 1370
306 478
306 508
306 584
306 843
306 851
306 874
306 894
306 925
306 1101
306 1195
306 1242
306 1289
306 1295
306 1301
307 392
307 630
307 637
307 1118
307 1164
307 1225
307 1245
307 1322
308 395
308 606
308 897
308 940
308 975
308 1325
309 320
309 323
309 337
309 346
309 350
309 353
309 363
309 371
309 399
309 406
309 467
309 490
309 497
309 500
309 504
309 517
309 557
309 571
309 611
309 618
309 648
309 654
309 665
309 722
309 724
309 729
309 733
309 750
309 763
309 768
309 777
309 812
309 868
309 901
309 913
309 922
309 933
309 942
309 963
309 1008
309 1020
309 1067
309 1076
309 1078
309 1082
309 1134
309 1162
309 1191
309 1192
309 1263
309 1265
309 1286
309 1316
309 1328
309 1340
309 1372
309 1388
309 1394
310 448
310 470
310 484
310 550
310 592
310 688
310 807
310 1056
310 1073
310 1081
310 1282
310 1303
310 1304
310 1313
310 1323
310 1326
311 322
311 323
311 350
311 431
311 490
311 507
311 557
311 657
311 661
311 665
311 722
311 782
311 803
311 815
311 834
311 861
311 895
311 901
311 913
311 928
311 935
311 951
311 1014
311 1079
311 1082
311 1084
311 1134
311 1135
311 1140
311 1191
311 1320
311 1335
311 1357
311 1382
312 318
312 336
312 446
312 676
312 711
312 809
312 841
312 893
312 1069
312 1222
312 1266
313 380
313 769
313 1340
314 654
314 661
314 963
314 1027
314 1076
314 1082
314 1367
315 611
315 1008
316 326
316 353
316 402
316 406
316 408
316 431
316 470
316 488
316 497
316 517
316 543
316 557
316 571
316 603
316 605
316 618
316 633
316 693
316 729
316 762
316 782
316 793
316 803
316 831
316 839
316 868
316 878
316 889
316 903
316 913
316 922
316 928
316 945
316 947
316 1027
316 1042
316 1046
316 1084
316 1085
316 1106
316 1192
316 1228
316 1238
316 1263
316 1265
316 1268
316 1320
316 1372
316 1394
317 375
317 393
317 558
317 581
317 593
317 714
317 855
317 1164
317 1245
317 1299
318 372
318 387
318 395
318 420
318 422
318 825
318 1038
318 1167
318 1222
318 1224
318 1248
318 1250
318 1266
318 1273
319 356
319 623
319 716
319 764
319 876
319 888
319 959
319 1055
319 1086
319 1116
319 1125
319 1385
320 350
320 376
320 402
320 487
320 488
320 500
320 517
320 586
320 632
320 654
320 693
320 730
320 733
320 744
320 746
320 762
320 768
320 812
320 861
320 880
320 901
320 943
320 1003
320 1014
320 1034
320 1148
320 1162
320 1220
320 1233
320 1335
320 1391
321 395
321 760
321 822
321 909
321 998
322 529
322 693
322 852
322 963
322 1106
322 1134
322 1178
322 1191
322 1238
322 1286
322 1352
323 371
323 376
323 402
323 517
323 518
323 543
323 582
323 605
323 733
323 788
323 793
323 823
323 913
323 935
323 942
323 1020
323 1042
323 1067
323 1233
323 1252
323 1351
323 1357
323 1367
324 661
324 1340
325 1079
326 353
326 366
326 402
326 408
326 431
326 462
326 531
326 557
326 571
326 605
326 618
326 632
326 686
326 722
326 730
326 735
326 750
326 762
326 803
326 829
326 831
326 868
326 872
326 878
326 885
326 903
326 922
326 942
326 947
326 960
326 982
326 992
326 999
326 1003
326 1011
326 1014
326 1034
326 1046
326 1082
326 1084
326 1106
326 1148
326 1238
326 1263
326 1265
326 1351
326 1352
326 1391
327 343
327 422
327 602
327 956
327 1243
327 1281
327 1283
327 1324
328 438
328 623
328 649
328 825
328 830
328 959
328 969
328 1022
328 1193
328 1327
329 411
329 418
329 443
329 516
329 520
329 719
329 871
329 908
329 970
329 1038
329 1128
329 1129
329 1173
329 1198
329 1211
329 1237
329 1336
330 453
330 482
330 528
330 620
330 653
330 715
330 964
330 1184
331 353
331 371
331 467
331 490
331 518
331 532
331 557
331 582
331 603
331 648
331 733
331 774
331 777
331 782
331 804
331 829
331 834
331 837
331 913
331 942
331 1003
331 1014
331 1020
331 1034
331 1046
331 1067
331 1076
331 1079
331 1084
331 1106
331 1196
331 1233
331 1252
331 1263
331 1268
331 1335
331 1340
331 1379
331 1382
331 1394
332 537
332 589
332 691
332 824
332 844
332 1093
332 1180
333 415
333 476
333 573
333 767
333 987
333 1236
333 1310
333 1395
334 718
334 737
334 780
334 886
334 996
335 460
335 468
335 574
335 615
335 911
335 929
335 1110
335 1136
335 1343
335 1389
336 383
336 493
336 564
336 567
336 650
336 678
336 711
336 956
336 1038
336 1065
336 1138
336 1167
336 1222
336 1243
336 1248
336 1257
336 1306
336 1353
337 402
337 490
337 531
337 557
337 586
337 632
337 654
337 661
337 777
337 793
337 804
337 895
337 913
337 926
337 945
337 1067
337 1265
337 1274
337 1286
337 1320
338 349
338 457
338 597
338 604
338 728
338 844
338 845
338 961
338 965
338 1051
338 1137
338 1217
338 1300
338 1342
338 1355
338 1365
338 1393
339 382
339 520
339 646
339 687
339 718
339 778
339 856
339 886
339 997
339 1039
339 1126
339 1146
339 1173
339 1197
339 1350
340 378
340 836
340 1038
340 1049
340 1151
340 1171
341 495
341 773
341 846
341 892
341 1161
341 1169
341 1221
341 1293
342 603
342 661
342 943
343 422
343 602
343 956
343 1243
343 1281
343 1283
343 1324
344 349
344 401
344 542
344 667
344 706
344 917
344 1114
344 1115
344 1153
344 1294
345 465
345 482
345 499
345 715
345 817
345 847
345 936
345 1224
345 1232
345 1273
345 1369
346 388
346 412
346 500
346 529
346 730
346 788
346 878
346 901
346 942
346 1014
346 1134
346 1140
346 1192
346 1231
346 1391
347 461
347 559
347 780
347 996
347 1070
347 1158
347 1363
348 452
348 505
348 717
348 966
348 1386
349 355
349 369
349 567
349 616
349 622
349 781
349 795
349 832
349 854
349 954
349 972
349 1010
349 1043
349 1115
349 1138
349 1158
349 1299
349 1336
349 1363
349 1393
350 402
350 462
350 467
350 470
350 531
350 605
350 618
350 624
350 633
350 686
350 724
350 730
350 833
350 872
350 913
350 922
350 927
350 982
350 989
350 1078
350 1154
350 1162
350 1191
350 1196
350 1223
350 1233
350 1338
350 1378
351 361
351 371
351 402
351 431
351 532
351 557
351 571
351 654
351 665
351 700
351 724
351 730
351 746
351 834
351 868
351 1003
351 1027
351 1076
351 1089
351 1127
351 1196
351 1223
351 1268
351 1316
351 1340
351 1351
351 1367
352 517
352 518
352 531
352 617
352 648
352 768
352 1106
353 363
353 402
353 408
353 488
353 497
353 529
353 531
353 532
353 554
353 595
353 618
353 633
353 686
353 730
353 769
353 804
353 815
353 829
353 889
353 895
353 951
353 963
353 1003
353 1020
353 1027
353 1032
353 1067
353 1076
353 1078
353 1082
353 1096
353 1233
353 1238
353 1320
353 1367
353 1379
354 728
354 759
354 1137
354 1240
354 1375
355 442
355 452
355 641
355 717
355 1043
355 1202
356 369
356 569
356 798
356 860
356 888
356 974
356 1051
356 1281
356 1283
356 1304
356 1313
357 364
357 438
357 649
357 696
357 732
357 857
357 1018
357 1164
357 1245
358 469
358 482
358 547
358 616
358 715
358 807
358 876
358 954
358 1007
358 1086
358 1099
358 1160
358 1261
359 1076
360 438
360 461
360 476
360 573
360 649
360 692
360 1029
361 402
361 406
361 419
361 427
361 485
361 517
361 582
361 617
361 648
361 686
361 777
361 782
361 788
361 793
361 823
361 834
361 872
361 895
361 903
361 913
361 943
361 951
361 1016
361 1058
361 1067
361 1076
361 1096
361 1134
361 1140
361 1191
361 1265
361 1338
361 1382
362 429
362 464
362 882
363 376
363 399
363 427
363 470
363 485
363 507
363 529
363 532
363 554
363 618
363 632
363 648
363 686
363 724
363 730
363 812
363 819
363 831
363 852
363 872
363 901
363 903
363 913
363 928
363 960
363 989
363 1008
363 1032
363 1042
363 1067
363 1082
363 1119
363 1143
363 1265
363 1268
363 1286
363 1351
363 1388
364 401
364 626
364 732
364 910
364 917
364 965
364 1018
364 1052
364 1114
364 1235
364 1294
364 1312
364 1355
365 375
365 393
365 421
365 445
365 583
365 589
365 606
365 609
365 691
365 716
365 751
365 953
365 1125
365 1198
365 1258
365 1272
366 376
366 408
366 431
366 490
366 531
366 599
366 686
366 730
366 745
366 768
366 831
366 877
366 895
366 901
366 963
366 1008
366 1108
366 1140
366 1162
366 1380
367 422
367 489
367 541
367 608
367 622
367 644
367 758
367 781
367 1007
367 1160
367 1301
367 1329
368 482
368 547
368 675
368 715
368 734
368 812
368 1048
368 1051
368 1225
368 1247
368 1322
369 395
369 454
369 794
369 864
369 979
369 1301
369 1376
370 453
370 454
370 608
370 728
370 917
370 1041
370 1114
370 1137
370 1190
370 1347
371 406
371 419
371 424
371 427
371 467
371 470
371 519
371 532
371 618
371 686
371 733
371 744
371 782
371 793
371 872
371 878
371 895
371 927
371 942
371 1014
371 1079
371 1157
371 1252
371 1274
371 1320
371 1340
372 373
372 387
372 494
372 766
372 1017
372 1068
372 1091
372 1181
372 1266
373 387
373 400
373 403
373 682
373 794
373 956
373 976
373 1017
373 1030
373 1055
373 1116
373 1216
373 1243
373 1275
373 1356
373 1376
374 381
374 400
374 498
374 550
374 616
374 682
374 688
374 954
374 981
374 1015
374 1050
374 1109
374 1342
374 1359
374 1365
375 392
375 393
375 562
375 602
375 609
375 630
375 714
375 723
375 766
375 1091
375 1235
375 1324
375 1374
376 399
376 402
376 419
376 424
376 431
376 517
376 531
376 603
376 617
376 618
376 693
376 729
376 730
376 733
376 769
376 819
376 829
376 868
376 900
376 927
376 960
376 989
376 1020
376 1106
376 1148
376 1231
376 1233
376 1252
376 1256
376 1263
376 1320
376 1328
376 1335
376 1338
376 1372
376 1379
377 512
377 597
377 604
377 740
377 825
377 1023
377 1087
377 1204
377 1348
378 508
378 584
378 608
378 629
378 650
378 703
378 723
378 761
378 765
378 862
378 871
378 912
378 914
378 970
378 983
378 1012
378 1047
378 1171
378 1257
378 1321
378 1342
378 1365
379 733
379 1394
380 497
380 504
380 554
380 591
380 611
380 617
380 661
380 763
380 806
380 819
380 827
380 829
380 831
380 833
380 834
380 982
380 1003
380 1020
380 1268
380 1307
380 1340
380 1351
380 1367
380 1379
381 400
381 498
381 550
381 616
381 682
381 688
381 954
381 981
381 1015
381 1050
381 1109
381 1342
381 1359
381 1365
382 474
382 533
382 764
382 856
382 973
382 1350
382 1385
383 564
383 711
383 846
383 1053
383 1088
383 1167
383 1181
383 1248
383 1373
384 523
384 709
384 1183
384 1377
385 455
385 765
385 779
385 864
385 979
385 1021
385 1330
385 1361
386 635
386 673
386 869
386 1291
387 494
387 766
387 1017
387 1068
387 1091
387 1181
387 1266
388 399
388 470
388 497
388 517
388 683
388 750
388 852
388 889
388 901
388 1084
388 1231
389 405
389 417
389 478
389 754
389 792
389 897
389 940
389 957
389 1038
389 1167
389 1246
389 1248
389 1288
389 1289
390 486
390 634
390 1209
391 408
391 815
391 834
391 982
391 1223
391 1274
391 1328
391 1367
392 393
392 428
392 484
392 533
392 587
392 594
392 630
392 637
392 690
392 726
392 767
392 785
392 851
392 941
392 973
392 993
392 1101
392 1145
392 1239
392 1303
392 1310
392 1345
393 562
393 602
393 609
393 630
393 714
393 723
393 766
393 1091
393 1235
393 1324
393 1374
394 405
394 478
394 655
394 720
394 729
394 879
394 946
394 1048
394 1195
394 1217
394 1253
394 1289
395 422
395 615
395 909
395 1070
395 1266
395 1342
395 1365
396 710
396 1150
396 1271
396 1308
397 479
397 672
397 981
397 1015
397 1212
398 1140
398 1328
399 402
399 406
399 431
399 467
399 485
399 490
399 497
399 554
399 557
399 605
399 611
399 618
399 665
399 686
399 693
399 730
399 735
399 762
399 788
399 815
399 827
399 833
399 852
399 861
399 877
399 945
399 963
399 982
399 992
399 1032
399 1035
399 1042
399 1046
399 1078
399 1079
399 1108
399 1148
399 1163
399 1223
399 1238
399 1263
399 1320
399 1335
399 1340
399 1351
399 1372
399 1391
400 631
400 682
400 687
400 1017
400 1197
401 523
401 530
401 709
401 732
401 929
401 995
401 1115
401 1139
401 1218
401 1294
401 1342
401 1365
401 1384
401 1389
402 485
402 582
402 599
402 603
402 617
402 627
402 632
402 654
402 686
402 722
402 735
402 782
402 789
402 803
402 812
402 815
402 833
402 837
402 839
402 861
402 872
402 889
402 903
402 928
402 933
402 935
402 942
402 963
402 989
402 992
402 1027
402 1032
402 1061
402 1078
402 1084
402 1089
402 1134
402 1148
402 1220
402 1263
402 1320
402 1340
402 1351
402 1357
402 1362
402 1379
402 1380
403 455
403 575
403 628
403 713
403 761
403 779
403 976
403 1017
403 1198
404 455
404 463
404 728
404 740
404 779
404 812
404 860
404 1023
404 1025
404 1048
404 1059
404 1121
404 1137
404 1195
404 1200
404 1287
405 470
405 478
405 498
405 535
405 648
405 655
405 720
405 754
405 773
405 841
405 879
405 884
405 1118
405 1289
405 1359
406 431
406 490
406 507
406 543
406 595
406 599
406 661
406 665
406 744
406 746
406 750
406 769
406 782
406 789
406 806
406 815
406 819
406 831
406 861
406 951
406 982
406 1027
406 1046
406 1058
406 1140
406 1191
406 1265
406 1335
406 1340
406 1360
406 1379
406 1382
407 413
407 581
407 593
407 853
407 904
407 925
407 1038
407 1098
407 1170
407 1188
407 1203
407 1242
407 1299
408 490
408 500
408 543
408 571
408 733
408 762
408 812
408 819
408 834
408 837
408 872
408 1020
408 1027
408 1035
408 1106
408 1163
408 1178
408 1191
408 1265
408 1338
409 438
409 553
409 649
409 658
409 770
409 898
409 1254
410 440
410 480
410 484
410 581
410 593
410 610
410 770
410 994
410 1073
410 1081
410 1131
410 1303
410 1383
411 443
411 548
411 560
411 751
411 778
411 925
411 1166
411 1195
411 1211
411 1242
411 1258
411 1305
411 1334
412 599
412 648
412 789
412 1280
412 1340
412 1382
413 469
413 496
413 542
413 640
413 706
413 783
413 832
413 853
413 972
413 1130
413 1150
413 1170
413 1206
413 1290
413 1308
414 423
414 469
414 838
414 848
414 962
414 969
414 1229
414 1278
415 468
415 521
415 556
415 703
415 739
415 747
415 911
415 987
415 988
415 1012
415 1057
415 1133
415 1198
415 1396
416 592
416 797
416 850
416 875
416 1284
416 1302
416 1390
417 450
417 534
417 718
417 754
417 792
417 886
417 957
417 1050
417 1164
417 1245
417 1288
418 443
418 541
418 567
418 608
418 1074
418 1138
418 1164
418 1245
419 487
419 582
419 586
419 665
419 686
419 697
419 733
419 837
419 878
419 895
419 901
419 942
419 943
419 982
419 1014
419 1040
419 1067
419 1076
419 1082
419 1134
419 1140
419 1187
419 1220
419 1231
419 1263
419 1286
419 1362
419 1380
419 1382
419 1388
419 1394
420 483
420 623
420 772
420 959
420 1073
420 1081
420 1266
421 548
421 560
421 583
421 609
421 671
421 696
421 825
421 857
421 863
421 898
421 937
421 1071
421 1102
421 1246
421 1254
421 1255
421 1259
422 470
422 640
422 644
422 652
422 718
422 734
422 801
422 886
422 1048
422 1095
422 1247
422 1266
422 1284
422 1290
422 1302
422 1332
423 838
423 1070
425 473
425 552
425 694
425 1120
425 1244
426 463
426 614
426 736
426 818
426 990
426 1063
426 1195
426 1346
427 485
427 488
427 497
427 617
427 627
427 762
427 834
427 901
427 951
427 1096
427 1191
428 594
428 630
428 892
428 991
428 1004
428 1166
428 1293
428 1301
428 1334
429 464
429 882
430 467
430 485
430 504
430 517
430 529
430 554
430 557
430 599
430 603
430 633
430 730
430 753
430 763
430 812
430 815
430 829
430 831
430 837
430 868
430 885
430 895
430 901
430 942
430 945
430 960
430 1134
430 1154
430 1238
430 1252
430 1382
431 485
431 497
431 531
431 591
431 595
431 618
431 654
431 665
431 735
431 744
431 762
431 803
431 819
431 829
431 837
431 861
431 878
431 885
431 889
431 927
431 960
431 982
431 1042
431 1046
431 1079
431 1084
431 1085
431 1089
431 1143
431 1154
431 1162
431 1238
431 1263
431 1335
431 1357
431 1362
431 1367
431 1372
431 1388
432 485
432 557
432 603
432 812
432 831
432 877
432 1067
432 1388
433 829
433 1078
433 1196
434 811
434 930
434 1051
435 567
435 716
435 1125
435 1138
435 1276
435 1301
435 1318
435 1397
436 862
436 1006
436 1299
436 1321
437 449
437 563
437 596
437 613
437 645
437 663
437 814
437 866
437 899
437 1024
437 1029
437 1113
438 476
438 573
438 649
438 658
438 681
438 684
438 692
438 812
438 1018
438 1056
438 1112
438 1150
438 1193
438 1308
439 478
439 484
439 547
439 652
439 707
439 752
439 792
439 931
439 1051
439 1288
439 1289
439 1303
440 480
440 484
440 581
440 593
440 610
440 770
440 994
440 1073
440 1081
440 1131
440 1303
440 1383
441 735
441 881
441 1042
441 1082
441 1382
442 455
442 466
442 502
442 513
442 539
442 639
442 642
442 779
442 883
442 1043
442 1095
442 1341
443 516
443 520
443 719
443 871
443 908
443 970
443 1038
443 1128
443 1129
443 1173
443 1198
443 1211
443 1237
443 1336
444 464
444 628
444 653
444 677
444 713
444 758
444 786
444 860
444 980
444 1122
444 1184
444 1282
445 609
445 902
445 1038
445 1073
445 1081
445 1214
445 1272
446 456
446 589
446 634
446 653
446 691
446 731
446 757
446 887
446 893
446 952
446 1002
446 1026
446 1049
446 1151
446 1153
446 1184
446 1209
446 1222
446 1230
446 1342
446 1365
447 515
447 601
447 794
447 921
447 995
447 1155
447 1175
447 1179
447 1318
447 1376
447 1384
447 1397
448 509
449 651
449 667
449 738
449 757
449 814
449 835
449 899
449 1026
449 1054
449 1158
449 1363
450 534
450 562
450 629
450 949
450 956
450 957
450 967
450 1235
450 1243
450 1374
451 456
451 509
451 645
451 887
451 896
451 1087
451 1113
451 1205
451 1349
452 717
452 1043
452 1386
453 528
453 634
453 646
453 718
453 810
453 851
453 871
453 886
453 952
453 970
453 1028
453 1101
453 1126
453 1190
453 1209
453 1230
453 1260
454 474
454 495
454 723
454 751
454 765
454 938
454 955
454 1000
454 1055
454 1100
454 1116
454 1156
454 1190
454 1221
454 1235
454 1258
455 764
455 779
455 816
455 976
455 1055
455 1109
455 1116
455 1121
455 1361
455 1385
456 645
456 749
456 760
456 887
456 893
456 896
456 1027
456 1044
456 1056
456 1113
457 461
457 524
457 581
457 589
457 593
457 623
457 684
457 691
457 699
457 845
457 851
457 959
457 1056
457 1101
457 1112
457 1161
457 1301
457 1323
457 1326
457 1393
458 577
458 635
458 685
458 751
458 765
458 994
458 1131
458 1258
458 1291
458 1336
459 650
459 756
459 849
459 977
459 1045
459 1111
459 1159
459 1165
459 1213
459 1257
459 1296
459 1304
459 1313
460 530
460 553
460 574
460 602
460 643
460 757
460 807
460 1026
460 1099
460 1139
460 1261
460 1324
461 491
461 551
461 559
461 612
461 652
461 692
461 817
461 845
461 883
461 958
461 981
461 986
461 1010
461 1015
461 1188
461 1341
461 1369
462 595
462 789
462 934
462 1008
462 1084
463 539
463 558
463 659
463 765
463 818
463 949
463 1074
463 1121
464 469
464 494
464 687
464 980
464 1068
464 1182
464 1197
464 1198
464 1207
464 1229
464 1279
465 555
465 580
465 716
465 936
465 1125
465 1232
465 1292
465 1333
466 619
466 639
466 792
466 871
466 970
466 1288
467 470
467 517
467 532
467 595
467 693
467 733
467 762
467 788
467 831
467 837
467 861
467 889
467 901
467 942
467 945
467 963
467 978
467 989
467 1046
467 1067
467 1191
467 1223
467 1265
467 1268
467 1274
467 1338
467 1391
468 619
468 698
468 707
468 911
468 931
468 995
468 1010
468 1077
468 1298
468 1384
468 1392
469 561
469 653
469 676
469 705
469 757
469 820
469 838
469 946
469 974
469 1026
469 1069
469 1088
469 1105
469 1130
469 1170
469 1184
469 1206
469 1253
469 1318
469 1397
470 490
470 506
470 518
470 532
470 546
470 582
470 599
470 611
470 618
470 632
470 652
470 733
470 744
470 769
470 777
470 793
470 815
470 831
470 910
470 922
470 926
470 992
470 1034
470 1042
470 1089
470 1191
470 1196
470 1205
470 1236
470 1256
470 1280
470 1312
470 1349
470 1395
471 616
471 954
471 1000
471 1156
472 698
472 930
472 1298
472 1331
473 552
473 694
473 778
473 792
473 825
473 1288
474 491
474 502
474 512
474 551
474 740
474 755
474 764
474 786
474 840
474 906
474 949
474 975
474 1007
474 1023
474 1160
474 1315
474 1325
474 1348
474 1350
474 1385
475 558
475 588
475 981
475 1015
476 573
476 581
476 593
476 649
476 692
476 987
476 1083
476 1236
476 1395
477 504
477 654
477 815
477 903
477 947
477 1003
477 1020
477 1082
477 1238
477 1252
478 651
478 673
478 738
478 754
478 802
478 869
478 879
478 1000
478 1005
478 1150
478 1156
478 1289
478 1295
478 1308
479 672
479 981
479 1015
479 1212
480 538
480 548
480 560
480 725
480 1013
480 1118
480 1155
480 1158
480 1363
481 495
481 696
481 743
481 794
481 857
481 948
481 969
481 1000
481 1156
481 1164
481 1205
481 1221
481 1226
481 1245
481 1349
481 1376
482 528
482 675
482 715
482 726
482 936
482 1030
482 1275
482 1345
483 687
483 772
483 929
483 1146
483 1197
483 1389
484 561
484 630
484 678
484 801
484 994
484 1065
484 1105
484 1131
484 1303
484 1332
485 497
485 504
485 546
485 554
485 591
485 599
485 633
485 654
485 657
485 661
485 665
485 686
485 775
485 782
485 803
485 819
485 833
485 878
485 933
485 942
485 943
485 945
485 950
485 1014
485 1034
485 1058
485 1072
485 1076
485 1082
485 1143
485 1191
485 1220
485 1231
485 1268
485 1286
485 1316
485 1328
485 1382
485 1388
485 1391
486 634
486 1209
487 611
487 648
487 774
487 804
487 1058
487 1362
488 500
488 531
488 582
488 595
488 603
488 618
488 722
488 724
488 763
488 769
488 777
488 782
488 804
488 819
488 829
488 861
488 901
488 963
488 1014
488 1042
488 1058
488 1078
488 1084
488 1134
488 1154
488 1192
488 1220
488 1263
488 1286
488 1316
488 1340
488 1360
489 568
489 644
489 653
489 684
489 707
489 817
489 840
489 867
489 931
489 953
489 991
489 1059
489 1112
489 1184
489 1200
489 1270
489 1315
489 1329
489 1369
490 514
490 529
490 557
490 603
490 654
490 686
490 735
490 753
490 762
490 769
490 803
490 815
490 829
490 950
490 978
490 985
490 1014
490 1016
490 1076
490 1082
490 1084
490 1220
490 1233
490 1340
490 1379
490 1388
491 551
491 669
491 1145
491 1198
491 1239
492 563
492 590
492 613
492 659
492 698
492 736
492 990
492 1149
492 1298
493 711
493 981
493 1015
493 1299
493 1305
494 932
494 1068
494 1174
495 530
495 549
495 569
495 653
495 798
495 848
495 938
495 948
495 955
495 968
495 1007
495 1120
495 1139
495 1160
495 1169
495 1184
495 1221
495 1244
495 1323
495 1326
495 1354
496 537
496 577
496 590
496 674
496 685
496 783
496 916
496 1170
496 1180
496 1189
497 500
497 582
497 586
497 617
497 627
497 633
497 665
497 683
497 686
497 724
497 777
497 806
497 815
497 831
497 833
497 852
497 872
497 895
497 903
497 942
497 945
497 960
497 963
497 1042
497 1084
497 1096
497 1119
497 1140
497 1154
497 1178
497 1196
497 1238
497 1252
497 1338
497 1351
497 1360
497 1380
497 1394
498 898
498 1041
498 1254
498 1347
498 1359
499 749
499 847
499 936
499 1044
499 1145
499 1239
499 1304
499 1313
499 1336
499 1377
500 517
500 518
500 571
500 578
500 582
500 611
500 617
500 654
500 735
500 746
500 768
500 793
500 819
500 829
500 833
500 834
500 889
500 933
500 934
500 943
500 1084
500 1127
500 1134
500 1135
500 1140
500 1143
500 1163
500 1191
500 1196
500 1328
500 1351
500 1391
501 645
501 664
501 678
501 696
501 716
501 857
501 929
501 1065
501 1113
501 1125
501 1282
501 1299
501 1389
502 770
502 795
503 678
503 835
503 1037
503 1054
503 1065
504 531
504 546
504 554
504 571
504 586
504 595
504 605
504 627
504 633
504 733
504 782
504 815
504 829
504 868
504 872
504 878
504 913
504 922
504 943
504 950
504 985
504 1008
504 1020
504 1027
504 1034
504 1042
504 1058
504 1079
504 1084
504 1134
504 1148
504 1154
504 1223
504 1286
504 1360
504 1380
505 628
505 673
505 678
505 713
505 721
505 869
505 966
505 1019
505 1065
505 1095
505 1158
505 1342
505 1363
505 1365
505 1386
506 626
506 771
506 830
506 1052
506 1056
506 1368
507 518
507 571
507 599
507 617
507 654
507 656
507 730
507 762
507 768
507 769
507 777
507 782
507 806
507 819
507 827
507 861
507 868
507 877
507 878
507 920
507 942
507 951
507 982
507 1003
507 1079
507 1084
507 1096
507 1268
507 1274
507 1320
507 1328
507 1340
507 1367
507 1372
507 1380
507 1388
508 584
508 1045
508 1213
508 1295
508 1342
508 1365
509 536
509 752
509 896
509 1004
509 1066
509 1146
509 1201
509 1360
510 651
510 707
510 738
510 821
510 931
510 965
510 1036
510 1355
511 771
511 1147
511 1210
511 1368
512 619
512 668
512 830
512 975
512 1161
512 1204
512 1304
512 1313
512 1325
512 1348
513 642
513 851
513 860
513 882
513 1101
513 1102
513 1224
513 1259
513 1273
513 1297
513 1304
513 1313
514 532
514 546
514 661
514 686
514 735
514 746
514 782
514 789
514 831
514 913
514 963
514 1003
514 1014
514 1032
514 1060
514 1079
514 1082
514 1089
514 1094
514 1119
514 1140
514 1220
514 1228
514 1274
514 1360
514 1388
514 1391
515 623
515 921
515 959
515 968
515 1166
515 1175
515 1334
515 1354
516 1141
516 1237
517 518
517 532
517 557
517 571
517 599
517 603
517 605
517 632
517 722
517 762
517 763
517 768
517 793
517 819
517 827
517 829
517 861
517 868
517 878
517 943
517 978
517 989
517 1020
517 1032
517 1034
517 1042
517 1079
517 1119
517 1140
517 1196
517 1220
517 1274
517 1280
517 1286
517 1320
517 1328
517 1352
517 1388
517 1391
518 519
518 529
518 571
518 591
518 611
518 648
518 654
518 665
518 686
518 724
518 733
518 735
518 746
518 753
518 762
518 768
518 782
518 815
518 829
518 833
518 895
518 901
518 913
518 927
518 982
518 999
518 1040
518 1067
518 1076
518 1079
518 1084
518 1089
518 1127
518 1140
518 1176
518 1191
518 1223
518 1231
518 1252
518 1263
518 1274
518 1320
518 1388
518 1394
519 746
519 833
519 877
519 927
519 960
519 1196
519 1338
520 856
520 1173
520 1284
520 1302
521 523
521 556
521 646
521 709
521 725
521 739
521 757
521 773
521 851
521 929
521 1025
521 1026
521 1057
521 1101
521 1126
521 1389
522 557
522 742
522 1135
523 626
523 709
523 802
523 816
523 836
523 974
523 1005
523 1052
523 1057
523 1183
523 1294
524 699
524 751
524 845
524 1258
525 669
525 988
525 1090
525 1396
526 531
526 686
527 530
527 743
527 758
527 988
527 991
527 1045
527 1064
527 1139
527 1213
527 1226
527 1396
528 620
528 653
528 715
528 964
528 1184
529 611
529 648
529 724
529 733
529 803
529 804
529 833
529 834
529 868
529 872
529 901
529 978
529 982
529 985
529 1008
529 1058
529 1076
529 1106
529 1340
529 1351
529 1352
529 1372
529 1382
529 1391
530 574
530 923
530 1064
530 1070
530 1139
530 1144
530 1221
530 1294
531 611
531 633
531 654
531 665
531 733
531 746
531 762
531 763
531 768
531 803
531 812
531 815
531 827
531 831
531 833
531 834
531 861
531 878
531 901
531 926
531 982
531 985
531 992
531 1020
531 1027
531 1034
531 1042
531 1085
531 1107
531 1127
531 1143
531 1196
531 1265
531 1320
531 1328
531 1340
531 1351
532 611
532 633
532 654
532 661
532 665
532 722
532 730
532 733
532 763
532 775
532 852
532 927
532 935
532 945
532 947
532 951
532 1034
532 1046
532 1096
532 1132
532 1134
532 1135
532 1196
532 1220
532 1231
532 1241
532 1252
532 1263
532 1286
532 1328
532 1394
533 547
533 630
533 684
533 973
533 1112
533 1350
534 562
534 629
534 949
534 956
534 957
534 967
534 1235
534 1243
534 1374
535 612
535 875
535 884
535 1030
535 1055
535 1116
535 1215
535 1249
535 1275
535 1390
536 1066
536 1201
537 655
537 720
537 726
537 783
537 785
537 824
537 855
537 969
537 1161
537 1180
537 1345
538 587
538 702
538 822
538 932
538 993
538 1013
538 1092
538 1102
538 1174
538 1259
539 761
539 787
539 1098
539 1128
539 1129
539 1203
540 616
540 840
540 954
540 1007
540 1160
540 1304
540 1313
540 1315
540 1366
541 577
541 626
541 644
541 685
541 1052
542 673
542 706
542 808
542 869
542 1115
542 1170
542 1207
542 1236
542 1279
542 1395
543 611
543 689
543 697
543 762
543 942
543 992
543 1027
543 1034
543 1162
543 1191
543 1238
543 1263
543 1286
543 1328
543 1352
543 1357
543 1360
544 614
544 646
544 718
544 749
544 776
544 886
544 902
544 914
544 952
544 967
544 983
544 1009
544 1044
544 1117
544 1126
544 1214
544 1230
545 569
545 579
545 798
545 984
546 586
546 605
546 611
546 627
546 654
546 730
546 782
546 877
546 903
546 913
546 928
546 942
546 947
546 960
546 989
546 1014
546 1034
546 1078
546 1256
546 1286
546 1335
546 1340
547 569
547 675
547 767
547 795
547 798
547 973
547 1235
547 1310
548 560
548 583
548 634
548 723
548 751
548 760
548 956
548 958
548 1097
548 1103
548 1209
548 1211
548 1243
548 1258
548 1309
549 608
549 797
549 1075
549 1221
550 688
550 1342
550 1365
551 669
551 1145
551 1198
551 1239
552 694
552 1120
552 1244
553 574
553 658
553 830
553 897
553 940
553 1145
553 1239
553 1284
553 1302
554 557
554 654
554 730
554 733
554 746
554 750
554 753
554 762
554 823
554 834
554 837
554 868
554 878
554 885
554 933
554 934
554 945
554 950
554 982
554 1034
554 1127
554 1140
554 1191
554 1263
554 1268
554 1286
554 1316
554 1340
554 1362
554 1380
554 1391
555 1093
555 1232
555 1333
556 565
556 646
556 739
556 826
556 848
556 1057
556 1095
556 1126
557 571
557 603
557 681
557 693
557 722
557 724
557 777
557 806
557 827
557 833
557 837
557 895
557 901
557 903
557 950
557 982
557 1008
557 1067
557 1079
557 1085
557 1089
557 1096
557 1107
557 1140
557 1148
557 1192
557 1228
557 1268
557 1280
557 1320
557 1328
557 1340
557 1360
557 1362
557 1367
557 1372
557 1391
558 577
558 588
558 685
558 714
558 719
558 836
558 908
558 1038
558 1073
558 1081
559 780
559 996
559 1070
559 1158
559 1363
560 583
560 634
560 723
560 751
560 760
560 956
560 958
560 1097
560 1103
560 1209
560 1211
560 1243
560 1258
560 1309
561 590
561 910
561 1105
561 1303
561 1312
562 898
562 1007
562 1160
562 1210
562 1235
562 1254
562 1374
563 613
563 814
563 875
563 986
563 1149
563 1390
564 711
564 846
564 1053
564 1088
564 1167
564 1181
564 1248
564 1373
565 739
565 826
565 1282
565 1387
566 695
566 790
566 1030
566 1050
566 1087
566 1275
566 1358
567 711
567 873
567 904
567 1029
567 1073
567 1081
567 1138
567 1276
568 623
568 708
568 812
568 902
568 959
568 1045
568 1048
568 1213
568 1214
568 1270
568 1317
568 1329
569 636
569 669
569 798
569 918
569 1049
569 1151
569 1177
569 1181
569 1221
569 1225
569 1322
570 659
570 1208
570 1262
571 627
571 648
571 722
571 735
571 753
571 777
571 782
571 788
571 819
571 827
571 839
571 885
571 895
571 927
571 943
571 951
571 1014
571 1076
571 1084
571 1127
571 1134
571 1140
571 1280
571 1338
571 1340
571 1351
571 1357
572 828
572 944
572 1185
572 1314
572 1339
573 581
573 593
573 649
573 692
573 987
573 1083
573 1236
573 1395
574 602
574 643
574 757
574 807
574 1026
574 1099
574 1139
574 1261
574 1324
575 835
575 938
575 955
575 976
575 1054
575 1055
575 1116
576 1098
576 1203
576 1299
576 1364
577 598
577 663
577 685
577 773
577 783
577 799
577 866
577 1251
577 1319
578 903
579 807
579 984
580 597
580 604
580 635
580 967
580 1167
580 1232
580 1248
580 1291
580 1292
581 593
581 634
581 714
581 770
581 845
581 853
581 1150
581 1209
581 1282
581 1308
582 595
582 599
582 603
582 611
582 654
582 683
582 686
582 769
582 777
582 829
582 852
582 859
582 872
582 878
582 889
582 901
582 943
582 947
582 950
582 960
582 989
582 992
582 1027
582 1058
582 1067
582 1079
582 1089
582 1127
582 1162
582 1178
582 1191
582 1196
582 1220
582 1252
582 1307
582 1335
583 609
583 671
583 696
583 825
583 857
583 863
583 898
583 937
583 1071
583 1102
583 1246
583 1254
583 1255
583 1259
584 1045
584 1213
584 1295
584 1342
584 1365
585 726
585 1031
585 1102
585 1259
585 1345
586 595
586 617
586 633
586 724
586 762
586 768
586 769
586 777
586 806
586 831
586 834
586 868
586 877
586 913
586 989
586 1003
586 1027
586 1082
586 1140
586 1233
586 1351
587 630
587 707
587 757
587 931
587 993
587 1013
587 1026
588 981
588 1015
589 609
589 691
589 824
589 845
589 846
589 893
589 1063
590 725
590 740
590 783
590 840
590 1007
590 1023
590 1105
590 1149
590 1160
590 1218
590 1304
590 1313
590 1315
591 611
591 661
591 686
591 768
591 806
591 834
591 839
591 895
591 913
591 926
591 943
591 963
591 978
591 982
591 1034
591 1127
591 1134
591 1140
591 1320
591 1379
592 850
592 962
592 1278
592 1301
593 634
593 714
593 770
593 845
593 853
593 1150
593 1209
593 1282
593 1308
594 630
594 892
594 991
594 1004
594 1166
594 1293
594 1301
594 1334
595 632
595 654
595 693
595 722
595 735
595 788
595 803
595 812
595 819
595 823
595 839
595 878
595 913
595 926
595 960
595 963
595 992
595 1014
595 1027
595 1067
595 1076
595 1084
595 1148
595 1220
595 1256
595 1263
595 1286
596 631
596 659
596 676
596 764
596 814
596 1024
596 1069
596 1385
597 604
597 749
597 797
597 952
597 1041
597 1044
597 1204
597 1230
597 1292
597 1301
597 1347
597 1393
598 685
598 1007
598 1160
598 1225
598 1251
598 1322
599 617
599 618
599 753
599 762
599 788
599 901
599 982
599 1035
599 1046
599 1127
599 1231
599 1233
599 1320
600 687
600 725
600 1177
600 1197
600 1226
601 921
601 1179
601 1182
602 776
602 807
602 946
602 961
602 1027
602 1063
602 1218
602 1235
602 1253
602 1324
603 722
603 777
603 788
603 789
603 827
603 829
603 834
603 872
603 877
603 927
603 943
603 950
603 989
603 1032
603 1042
603 1067
603 1072
603 1079
603 1084
603 1135
603 1143
603 1178
603 1233
603 1320
603 1328
603 1351
604 749
604 797
604 952
604 1041
604 1044
604 1204
604 1230
604 1292
604 1301
604 1347
604 1393
605 665
605 683
605 793
605 913
605 928
605 945
605 963
605 1076
605 1082
605 1119
605 1140
605 1280
605 1335
605 1338
605 1367
605 1380
606 609
606 1164
606 1245
606 1304
606 1313
607 702
607 778
607 1092
607 1300
608 644
608 670
608 1010
608 1190
608 1267
609 691
609 716
609 751
609 953
609 1125
609 1198
609 1258
609 1272
610 625
610 870
610 977
610 1165
610 1300
610 1383
611 627
611 633
611 686
611 722
611 730
611 733
611 735
611 812
611 831
611 834
611 861
611 868
611 872
611 878
611 880
611 913
611 928
611 992
611 1042
611 1078
611 1079
611 1084
611 1119
611 1135
611 1143
611 1192
611 1199
611 1220
611 1238
611 1256
611 1263
611 1307
611 1320
611 1338
611 1340
612 631
612 795
612 884
612 956
612 1093
612 1243
613 814
613 875
613 986
613 1149
613 1390
614 786
614 818
614 860
614 956
614 1063
614 1243
615 944
615 1339
616 726
616 954
616 1345
616 1366
617 627
617 661
617 730
617 733
617 769
617 777
617 793
617 806
617 823
617 831
617 834
617 861
617 868
617 920
617 927
617 950
617 960
617 1046
617 1078
617 1089
617 1143
617 1154
617 1157
617 1192
617 1220
617 1223
617 1256
617 1340
617 1362
617 1394
618 724
618 768
618 769
618 782
618 793
618 804
618 823
618 833
618 868
618 872
618 877
618 903
618 922
618 1014
618 1035
618 1040
618 1067
618 1076
618 1082
618 1140
618 1148
618 1157
618 1162
618 1191
618 1233
618 1252
618 1263
618 1280
618 1338
618 1340
618 1372
618 1394
619 639
619 666
619 712
619 817
619 911
619 1070
619 1217
619 1226
619 1348
619 1369
620 747
620 964
620 1133
621 736
621 809
621 990
621 1215
621 1234
621 1249
621 1297
622 644
622 781
622 1103
622 1229
623 764
623 845
623 888
623 959
623 1055
623 1116
623 1175
623 1193
623 1270
623 1297
623 1306
623 1353
623 1370
623 1385
624 1082
625 650
625 870
625 1257
625 1383
626 709
626 732
626 770
626 1052
626 1077
626 1128
626 1129
626 1207
626 1279
626 1392
627 632
627 660
627 789
627 803
627 804
627 806
627 823
627 878
627 885
627 989
627 1003
627 1008
627 1032
627 1034
627 1046
627 1067
627 1076
627 1079
627 1082
627 1154
627 1238
627 1340
627 1352
627 1362
627 1379
627 1388
628 713
628 883
628 966
628 976
628 980
628 1341
629 684
629 997
629 1039
629 1112
630 637
630 690
630 726
630 767
630 785
630 851
630 941
630 973
630 993
630 1101
630 1145
630 1239
630 1303
630 1310
630 1345
631 682
631 702
631 812
631 995
631 1024
631 1092
631 1384
632 633
632 665
632 762
632 782
632 803
632 827
632 831
632 833
632 834
632 868
632 872
632 878
632 889
632 963
632 982
632 989
632 1008
632 1020
632 1067
632 1079
632 1089
632 1119
632 1135
632 1241
632 1320
632 1372
632 1382
633 724
633 741
633 746
633 833
633 837
633 868
633 872
633 885
633 913
633 935
633 950
633 963
633 978
633 992
633 1008
633 1011
633 1027
633 1032
633 1046
633 1067
633 1078
633 1089
633 1104
633 1119
633 1127
633 1134
633 1135
633 1196
633 1252
633 1256
633 1269
633 1328
633 1340
633 1357
633 1382
633 1388
634 648
634 759
634 810
634 893
634 946
634 1028
634 1209
634 1240
634 1253
635 718
635 886
635 1291
635 1292
636 798
636 918
636 1103
637 1118
637 1164
637 1225
637 1245
637 1322
638 784
638 975
638 1030
638 1095
638 1275
638 1301
638 1325
639 792
639 871
639 970
639 1288
640 773
640 1000
640 1156
640 1167
640 1170
640 1248
640 1290
640 1346
641 771
641 953
641 1043
641 1202
641 1224
641 1273
641 1300
641 1309
641 1368
642 851
642 860
642 882
642 1101
642 1102
642 1224
642 1259
642 1273
642 1297
642 1304
642 1313
643 698
643 1298
644 758
644 781
644 1007
644 1160
644 1301
644 1329
645 664
645 776
645 814
645 887
645 896
645 1113
645 1150
645 1308
646 739
646 856
646 1057
646 1126
646 1166
646 1334
647 765
647 858
647 1010
647 1167
647 1248
647 1323
647 1326
648 683
648 684
648 693
648 773
648 789
648 815
648 829
648 833
648 927
648 933
648 1027
648 1042
648 1046
648 1067
648 1076
648 1096
648 1112
648 1119
648 1127
648 1209
648 1238
648 1320
648 1362
649 658
649 681
649 684
649 692
649 812
649 1018
649 1056
649 1112
649 1150
649 1193
649 1308
650 711
650 849
650 870
650 1073
650 1081
650 1210
650 1257
651 738
651 752
651 899
651 1036
651 1289
652 1056
653 716
653 729
653 844
653 893
653 961
653 962
653 980
653 1125
653 1153
653 1166
653 1184
653 1210
653 1221
653 1278
653 1329
653 1334
654 657
654 661
654 665
654 683
654 686
654 722
654 733
654 769
654 793
654 806
654 823
654 831
654 833
654 837
654 861
654 868
654 885
654 900
654 901
654 922
654 926
654 943
654 950
654 989
654 1011
654 1014
654 1046
654 1058
654 1076
654 1079
654 1082
654 1108
654 1127
654 1134
654 1140
654 1191
654 1192
654 1220
654 1238
654 1263
654 1328
654 1340
654 1379
655 703
655 720
655 879
655 1012
655 1180
656 697
656 1280
657 686
657 788
657 834
657 1360
658 770
658 898
658 1254
659 773
659 792
659 864
659 930
659 979
659 1024
659 1149
659 1208
659 1262
659 1288
661 693
661 746
661 868
661 878
661 903
661 934
661 942
661 950
661 963
661 989
661 1014
661 1020
661 1027
661 1035
661 1058
661 1079
661 1096
661 1119
661 1140
661 1148
661 1191
661 1256
661 1263
661 1328
661 1335
661 1360
661 1379
661 1382
661 1388
661 1391
662 740
662 776
662 865
662 910
662 1023
662 1074
662 1312
663 685
663 716
663 814
663 866
663 875
663 915
663 1125
663 1145
663 1239
663 1390
663 1398
664 678
664 696
664 716
664 857
664 929
664 1065
664 1113
664 1125
664 1282
664 1299
664 1389
665 735
665 750
665 762
665 793
665 805
665 806
665 815
665 829
665 831
665 834
665 837
665 889
665 895
665 903
665 913
665 933
665 982
665 1008
665 1046
665 1067
665 1089
665 1140
665 1162
665 1178
665 1228
665 1233
665 1238
665 1252
665 1256
665 1307
665 1316
665 1351
665 1357
665 1367
666 712
666 773
666 1022
666 1110
666 1284
666 1302
666 1311
666 1327
666 1381
667 747
667 899
667 917
667 1097
667 1114
667 1115
667 1133
667 1166
667 1334
668 807
668 875
668 953
668 1045
668 1213
668 1250
668 1348
668 1390
669 798
669 807
669 1090
670 1088
670 1267
671 770
671 792
671 841
671 997
671 1039
671 1093
671 1255
671 1288
672 981
672 1015
672 1212
673 706
673 869
673 915
673 966
673 1289
673 1398
674 731
674 761
674 783
674 801
674 883
674 953
674 1002
674 1045
674 1128
674 1129
674 1153
674 1213
674 1332
674 1341
675 715
675 734
675 812
675 1048
675 1051
675 1225
675 1247
675 1322
676 695
676 725
676 808
676 1024
676 1030
676 1069
676 1222
676 1275
676 1358
677 718
677 886
677 953
677 980
677 1122
678 711
678 966
678 967
678 1037
678 1065
678 1303
679 935
679 942
679 1079
680 994
680 1131
680 1186
680 1210
681 1118
681 1284
681 1302
682 687
682 1017
682 1197
683 686
683 697
683 724
683 729
683 730
683 763
683 769
683 861
683 943
683 982
683 985
683 1078
683 1134
683 1178
683 1220
683 1263
683 1265
683 1286
683 1338
683 1352
683 1379
683 1380
683 1394
684 808
684 845
684 929
684 973
684 1112
684 1198
684 1246
684 1329
684 1389
685 773
685 783
685 799
685 866
685 1251
685 1319
686 722
686 724
686 729
686 763
686 768
686 777
686 788
686 804
686 819
686 831
686 839
686 895
686 950
686 960
686 1014
686 1067
686 1089
686 1106
686 1135
686 1143
686 1228
686 1233
686 1286
686 1307
686 1320
686 1338
686 1360
686 1367
686 1379
687 736
687 772
687 856
687 902
687 990
687 1161
687 1167
687 1197
687 1214
687 1248
688 1342
688 1365
689 693
690 832
690 941
690 972
691 824
691 845
691 846
691 893
691 1063
692 1029
693 730
693 788
693 804
693 829
693 834
693 950
693 1014
693 1058
693 1096
693 1127
693 1134
693 1154
693 1220
693 1233
693 1340
693 1372
694 778
694 792
694 825
694 1288
695 790
695 797
695 1004
695 1069
695 1358
696 723
696 857
696 923
696 948
696 1018
696 1144
696 1158
696 1318
696 1363
696 1397
697 788
697 868
697 913
697 927
697 951
697 1034
697 1040
697 1058
697 1089
697 1127
697 1252
697 1391
698 708
698 911
698 929
698 995
698 1149
698 1215
698 1249
698 1298
698 1317
698 1331
698 1384
698 1389
699 751
699 845
699 1258
700 945
700 1340
701 767
701 1010
701 1310
702 862
702 1013
702 1049
702 1092
702 1151
702 1166
702 1321
702 1334
703 720
703 1012
704 789
705 727
705 761
705 820
705 975
705 1007
705 1160
705 1172
705 1325
705 1336
706 808
706 869
706 1115
706 1170
706 1207
706 1236
706 1279
706 1395
707 911
707 929
707 931
707 993
707 1036
707 1299
707 1329
707 1389
708 871
708 970
708 1030
708 1270
708 1275
708 1298
708 1317
709 802
709 816
709 836
709 974
709 1005
709 1052
709 1057
709 1183
709 1294
710 1150
710 1271
710 1308
711 956
711 1038
711 1065
711 1138
711 1167
711 1222
711 1243
711 1248
711 1257
711 1306
711 1353
712 773
712 1022
712 1110
712 1284
712 1302
712 1311
712 1327
712 1381
713 883
713 966
713 976
713 980
713 1341
714 855
714 1164
714 1245
714 1299
715 726
715 936
715 1030
715 1275
715 1345
716 748
716 813
716 866
716 888
716 944
716 1120
716 1125
716 1184
716 1232
716 1244
716 1276
716 1281
716 1283
716 1318
716 1339
716 1397
717 1043
717 1386
718 731
718 737
718 856
718 886
718 957
718 967
718 1002
718 1122
718 1130
718 1206
718 1218
718 1291
718 1377
719 908
720 879
720 1012
720 1180
721 727
721 862
721 890
721 966
721 1019
721 1172
721 1321
722 733
722 803
722 819
722 834
722 868
722 878
722 895
722 927
722 939
722 943
722 989
722 992
722 1034
722 1082
722 1106
722 1142
722 1238
722 1256
722 1320
722 1335
722 1367
722 1382
722 1391
723 857
723 867
723 944
723 1056
723 1109
723 1339
724 730
724 744
724 774
724 815
724 827
724 895
724 903
724 913
724 928
724 942
724 982
724 1001
724 1020
724 1034
724 1040
724 1076
724 1079
724 1178
724 1192
724 1233
724 1238
724 1263
724 1286
724 1362
724 1388
725 785
725 1057
725 1069
725 1100
725 1216
725 1356
726 954
726 1031
726 1048
726 1109
726 1180
726 1345
727 820
727 1019
727 1172
728 767
728 854
728 958
728 1121
728 1137
728 1190
728 1285
728 1310
728 1375
728 1393
729 746
729 768
729 782
729 812
729 879
729 935
729 947
729 960
729 1008
729 1014
729 1184
729 1191
729 1196
729 1263
729 1265
729 1379
729 1391
729 1394
730 750
730 763
730 777
730 782
730 803
730 819
730 868
730 889
730 928
730 943
730 982
730 1020
730 1032
730 1067
730 1082
730 1084
730 1119
730 1176
730 1220
730 1286
730 1335
730 1338
730 1362
730 1388
731 761
731 812
731 851
731 886
731 893
731 1002
731 1053
731 1074
731 1101
731 1373
732 910
732 917
732 965
732 1018
732 1052
732 1114
732 1235
732 1294
732 1312
732 1355
733 769
733 777
733 837
733 839
733 872
733 889
733 901
733 933
733 943
733 1003
733 1082
733 1134
733 1140
733 1220
733 1263
733 1274
733 1340
733 1351
733 1362
733 1372
733 1391
733 1394
734 892
734 1097
734 1247
734 1293
735 746
735 834
735 837
735 922
735 926
735 935
735 1008
735 1034
735 1089
735 1140
735 1274
735 1351
735 1391
736 767
736 818
736 990
736 1149
736 1197
736 1218
736 1234
736 1310
737 780
737 886
737 996
738 752
738 899
738 1036
738 1289
739 826
739 848
739 1057
739 1095
739 1126
740 758
740 797
740 812
740 830
740 836
740 865
740 967
740 988
740 1023
740 1048
740 1073
740 1081
740 1100
740 1121
740 1167
740 1204
740 1248
740 1396
741 1076
742 782
742 803
742 926
742 1058
743 776
743 948
743 1064
743 1299
744 829
744 833
744 834
744 943
744 945
744 1034
744 1035
744 1191
744 1223
744 1263
744 1320
744 1352
746 788
746 837
746 895
746 922
746 945
746 1003
746 1027
746 1106
746 1196
746 1335
746 1340
746 1379
747 751
747 964
747 988
747 1133
747 1258
747 1318
747 1396
747 1397
748 813
748 1125
748 1145
748 1239
749 785
749 807
749 832
749 843
749 847
749 874
749 887
749 925
749 972
749 1044
749 1242
749 1284
749 1302
750 789
750 815
750 901
750 913
750 922
750 1127
750 1233
751 761
751 944
751 962
751 968
751 1004
751 1133
751 1164
751 1211
751 1245
751 1258
751 1278
751 1318
751 1339
751 1354
751 1397
752 796
752 1227
753 815
753 823
753 827
753 834
753 852
753 951
753 982
753 1008
753 1034
753 1058
753 1076
753 1096
753 1127
753 1140
753 1277
753 1372
754 792
754 897
754 940
754 957
754 1038
754 1167
754 1246
754 1248
754 1288
754 1289
755 906
755 1219
756 849
756 1159
756 1236
756 1395
757 893
757 899
757 988
757 993
757 1026
757 1057
757 1205
757 1349
757 1396
758 848
758 980
758 1023
758 1051
758 1064
759 1168
759 1209
759 1240
759 1281
759 1283
759 1375
760 887
760 909
760 1063
760 1299
761 796
761 820
761 844
761 860
761 976
761 991
761 1002
761 1059
761 1097
761 1103
761 1200
761 1227
761 1258
761 1346
761 1370
762 763
762 777
762 782
762 788
762 827
762 831
762 833
762 868
762 878
762 885
762 922
762 928
762 945
762 982
762 1014
762 1020
762 1032
762 1035
762 1042
762 1046
762 1079
762 1082
762 1157
762 1191
762 1238
762 1256
762 1268
762 1277
762 1307
762 1316
762 1328
762 1352
762 1388
762 1391
763 768
763 788
763 806
763 839
763 852
763 872
763 889
763 895
763 901
763 924
763 928
763 934
763 947
763 982
763 1008
763 1020
763 1035
763 1067
763 1085
763 1096
763 1148
763 1268
763 1274
763 1280
763 1340
763 1351
763 1352
763 1380
763 1391
764 779
764 797
764 888
764 932
764 959
764 1024
764 1095
764 1124
764 1174
764 1344
764 1350
764 1385
765 858
765 882
765 897
765 940
765 1095
765 1177
765 1318
765 1361
765 1397
766 1007
766 1091
766 1160
766 1250
767 904
767 937
767 975
767 987
767 990
767 1070
767 1071
767 1137
767 1219
767 1310
767 1325
768 803
768 827
768 868
768 945
768 1014
768 1027
768 1034
768 1076
768 1079
768 1106
768 1143
768 1162
768 1178
768 1191
768 1196
768 1252
768 1274
768 1352
769 777
769 782
769 788
769 895
769 903
769 922
769 945
769 951
769 985
769 1003
769 1046
769 1089
769 1127
769 1140
769 1191
769 1231
769 1252
769 1268
769 1280
769 1316
769 1338
769 1340
769 1362
769 1379
769 1388
769 1391
770 969
770 994
770 1022
770 1052
770 1131
770 1255
770 1299
770 1327
771 792
771 807
771 1147
771 1158
771 1202
771 1288
771 1363
771 1368
772 929
772 1146
772 1197
772 1389
773 836
773 894
773 1057
773 1169
773 1198
773 1290
774 922
774 1076
774 1192
775 1034
775 1089
776 851
776 865
776 938
776 955
776 1038
776 1101
776 1113
776 1150
776 1224
776 1273
776 1308
776 1324
777 788
777 803
777 819
777 834
777 852
777 861
777 901
777 922
777 927
777 928
777 942
777 985
777 1003
777 1020
777 1027
777 1034
777 1046
777 1127
777 1135
777 1191
777 1280
777 1351
777 1357
777 1379
777 1388
778 856
778 892
778 1073
778 1081
778 1211
778 1293
779 816
779 976
779 1055
779 1109
779 1116
779 1121
779 1361
779 1385
780 991
780 996
780 1309
781 1103
781 1229
782 815
782 868
782 922
782 927
782 935
782 942
782 951
782 992
782 1008
782 1016
782 1020
782 1034
782 1046
782 1078
782 1089
782 1140
782 1143
782 1199
782 1233
782 1252
782 1256
782 1280
782 1338
782 1362
782 1391
783 916
783 1170
783 1180
783 1189
784 975
784 1030
784 1095
784 1275
784 1301
784 1325
785 802
785 807
785 902
785 961
785 991
785 1005
785 1027
785 1044
785 1180
785 1214
786 980
786 1181
787 929
787 1038
787 1389
788 800
788 803
788 812
788 861
788 868
788 889
788 901
788 942
788 950
788 963
788 985
788 1046
788 1079
788 1084
788 1094
788 1106
788 1135
788 1154
788 1223
788 1307
788 1320
788 1328
788 1372
788 1391
789 812
789 815
789 823
789 877
789 878
789 942
789 982
789 989
789 1162
789 1176
789 1286
789 1335
789 1338
789 1340
790 1030
790 1050
790 1087
790 1275
790 1358
791 942
791 943
792 863
792 898
792 957
792 1254
792 1255
792 1288
792 1368
793 829
793 861
793 872
793 1008
793 1020
793 1027
793 1034
793 1067
793 1082
793 1096
793 1106
793 1135
793 1220
793 1340
794 921
794 948
794 1017
794 1376
795 930
795 1141
795 1166
795 1217
795 1334
796 1227
797 850
797 910
797 1023
797 1070
797 1102
797 1110
797 1259
797 1312
797 1358
797 1385
798 918
798 1049
798 1151
798 1177
798 1181
798 1221
798 1225
798 1322
799 1246
799 1319
800 837
800 878
800 913
800 1134
801 822
801 1303
801 1332
802 851
802 882
802 917
802 1005
802 1095
802 1101
802 1114
802 1289
803 833
803 834
803 868
803 878
803 907
803 927
803 951
803 1020
803 1035
803 1067
803 1127
803 1178
803 1231
803 1268
803 1280
803 1372
803 1394
804 815
804 829
804 852
804 872
804 889
804 963
804 1001
804 1058
804 1067
804 1078
804 1163
804 1220
804 1263
804 1307
804 1338
804 1391
805 1001
806 833
806 859
806 868
806 872
806 878
806 901
806 927
806 942
806 960
806 1020
806 1034
806 1046
806 1060
806 1089
806 1154
806 1192
806 1196
806 1372
807 894
807 904
807 984
807 1044
807 1145
807 1181
807 1205
807 1239
807 1284
807 1302
807 1324
807 1349
807 1368
808 904
808 1069
808 1112
809 1222
809 1234
810 1028
810 1209
811 930
811 1051
812 833
812 840
812 860
812 861
812 963
812 982
812 1002
812 1008
812 1020
812 1023
812 1027
812 1035
812 1045
812 1058
812 1067
812 1085
812 1119
812 1121
812 1199
812 1213
812 1220
812 1231
812 1233
812 1236
812 1238
812 1263
812 1270
812 1284
812 1302
812 1315
812 1316
812 1338
812 1351
812 1362
812 1367
812 1395
813 1125
813 1145
813 1239
814 866
814 899
814 1024
814 1029
814 1113
815 872
815 881
815 913
815 922
815 942
815 947
815 1003
815 1008
815 1020
815 1032
815 1078
815 1096
815 1154
815 1194
815 1220
815 1256
815 1286
815 1320
815 1338
815 1357
815 1379
817 875
817 936
817 1041
817 1095
817 1329
817 1347
817 1369
817 1390
818 990
818 1063
818 1195
818 1346
819 885
819 913
819 943
819 1003
819 1067
819 1079
819 1089
820 975
820 1007
820 1160
820 1172
820 1325
820 1336
821 1036
821 1097
822 909
822 1013
822 1041
822 1332
822 1347
823 834
823 868
823 878
823 935
823 963
823 982
823 989
823 1079
823 1096
823 1135
823 1196
823 1233
823 1340
823 1379
824 844
824 1093
824 1180
825 1007
825 1030
825 1160
825 1193
825 1204
825 1210
825 1266
825 1275
826 1282
826 1387
827 872
827 927
827 933
827 942
827 945
827 1003
827 1082
827 1134
827 1178
827 1196
827 1263
827 1264
827 1335
828 944
828 1185
828 1314
828 1339
829 831
829 852
829 861
829 928
829 943
829 945
829 950
829 963
829 982
829 989
829 1008
829 1020
829 1027
829 1127
829 1154
829 1178
829 1320
829 1338
829 1357
829 1391
830 958
830 971
830 1023
830 1095
830 1193
830 1235
830 1348
831 834
831 861
831 868
831 877
831 889
831 901
831 922
831 935
831 950
831 963
831 985
831 1003
831 1027
831 1067
831 1076
831 1148
831 1191
831 1196
831 1220
831 1233
831 1252
831 1338
831 1352
831 1394
832 840
832 862
832 941
832 949
832 972
832 1044
832 1055
832 1095
832 1116
832 1170
832 1315
832 1321
833 839
833 868
833 885
833 889
833 901
833 928
833 942
833 960
833 963
833 989
833 1034
833 1096
833 1106
833 1140
833 1154
833 1196
833 1220
833 1252
833 1256
833 1268
833 1286
833 1316
833 1351
833 1380
834 839
834 861
834 872
834 877
834 903
834 942
834 963
834 1034
834 1079
834 1089
834 1096
834 1148
834 1178
834 1220
834 1231
834 1265
834 1286
834 1352
834 1357
834 1394
835 899
835 1037
835 1054
835 1087
836 902
836 930
836 1023
836 1130
836 1171
836 1206
836 1214
837 852
837 922
837 927
837 961
837 989
837 1067
837 1079
837 1082
837 1084
837 1134
837 1135
837 1148
837 1162
837 1178
837 1223
837 1335
837 1362
837 1394
838 848
838 962
838 969
838 1229
838 1278
839 877
839 935
839 950
839 992
839 1027
839 1042
839 1106
839 1119
839 1143
839 1252
839 1265
839 1320
839 1360
839 1388
840 972
840 1315
840 1329
840 1366
841 871
841 970
841 998
841 1070
841 1222
841 1255
842 1029
842 1177
842 1337
843 874
843 1044
843 1295
844 1141
844 1184
844 1393
845 851
845 959
845 1056
845 1101
845 1112
845 1161
845 1301
845 1323
845 1326
845 1393
846 944
846 1169
846 1339
847 936
847 1044
847 1145
847 1239
847 1304
847 1313
847 1336
847 1377
848 1221
849 977
849 1045
849 1111
849 1159
849 1165
849 1213
849 1257
849 1296
849 1304
849 1313
850 875
850 1284
850 1302
850 1390
851 1002
851 1005
851 1057
851 1101
851 1235
851 1260
851 1295
852 913
852 928
852 950
852 978
852 989
852 1032
852 1078
852 1096
852 1108
852 1162
852 1178
852 1199
852 1238
852 1263
852 1328
852 1338
852 1340
852 1362
853 904
853 925
853 1038
853 1098
853 1170
853 1188
853 1203
853 1242
853 1299
854 894
854 981
854 1015
854 1137
855 904
855 1180
855 1387
856 886
856 997
856 1039
856 1126
856 1146
856 1173
856 1197
856 1350
857 923
857 948
857 1018
857 1144
857 1158
857 1318
857 1363
857 1397
858 1010
858 1167
858 1248
858 1323
858 1326
860 916
860 980
860 1025
860 1048
860 1075
860 1121
860 1189
861 868
861 901
861 903
861 982
861 1027
861 1035
861 1084
861 1119
861 1176
861 1223
861 1367
861 1379
862 972
862 1006
862 1019
862 1088
862 1092
862 1287
862 1299
862 1321
863 1288
864 979
864 1361
865 910
865 1023
865 1074
865 1312
866 875
866 915
866 1125
866 1145
866 1239
866 1390
866 1398
867 1329
868 878
868 895
868 903
868 943
868 945
868 963
868 982
868 985
868 1020
868 1032
868 1046
868 1058
868 1067
868 1127
868 1154
868 1162
868 1196
868 1231
868 1233
868 1238
868 1263
868 1265
868 1307
868 1320
868 1352
868 1357
869 915
869 966
869 1289
869 1398
870 1257
870 1383
871 949
871 967
871 970
871 1109
871 1229
871 1317
872 885
872 927
872 960
872 963
872 982
872 989
872 1003
872 1032
872 1079
872 1106
872 1340
872 1352
872 1379
873 898
873 1138
873 1254
874 1044
874 1295
875 884
875 968
875 1282
875 1354
875 1369
875 1390
876 888
876 1086
877 889
877 895
877 901
877 913
877 1027
877 1082
877 1084
877 1143
877 1148
877 1196
877 1231
877 1256
877 1265
877 1338
877 1340
877 1352
877 1379
878 900
878 903
878 926
878 942
878 945
878 951
878 982
878 985
878 1014
878 1032
878 1079
878 1084
878 1127
878 1135
878 1143
878 1162
878 1191
878 1196
878 1223
878 1263
878 1268
878 1269
878 1286
878 1316
878 1320
878 1338
878 1357
878 1388
878 1394
879 946
879 1048
879 1195
879 1217
879 1253
879 1289
880 950
880 1046
880 1379
881 950
882 1005
883 1341
884 1030
884 1055
884 1116
884 1215
884 1249
884 1275
884 1390
885 889
885 927
885 960
885 992
885 1008
885 1034
885 1078
885 1084
885 1096
885 1123
885 1233
885 1252
885 1268
885 1274
885 1307
886 957
886 967
886 1002
886 1122
886 1130
886 1206
886 1218
886 1291
886 1377
887 893
887 896
887 1027
887 1044
887 1056
887 1113
888 959
888 1055
888 1086
888 1116
888 1125
888 1385
889 895
889 920
889 927
889 942
889 982
889 985
889 992
889 1020
889 1062
889 1067
889 1079
889 1084
889 1096
889 1119
889 1127
889 1148
889 1220
889 1256
889 1265
889 1274
889 1286
889 1307
889 1316
889 1340
890 988
890 1019
890 1396
891 1003
891 1362
892 1038
892 1088
892 1169
892 1247
892 1293
893 952
893 1002
893 1026
893 1049
893 1151
893 1153
893 1184
893 1209
893 1222
893 1230
893 1342
893 1365
894 912
894 1010
894 1047
894 1130
894 1161
894 1206
894 1295
895 901
895 913
895 963
895 992
895 1008
895 1011
895 1027
895 1082
895 1084
895 1085
895 1108
895 1135
895 1140
895 1148
895 1178
895 1231
895 1252
895 1357
895 1360
895 1372
895 1380
895 1394
896 1087
896 1113
896 1205
896 1349
897 940
897 1215
897 1249
897 1282
898 986
898 1048
898 1164
898 1245
898 1254
898 1288
898 1359
898 1374
899 1026
899 1054
899 1158
899 1363
900 945
900 1067
900 1076
900 1135
901 913
901 928
901 985
901 1014
901 1034
901 1046
901 1076
901 1134
901 1135
901 1154
901 1220
901 1223
901 1231
901 1256
901 1338
901 1352
901 1372
901 1382
902 1103
902 1197
902 1214
902 1270
902 1272
903 913
903 933
903 945
903 1076
903 1078
903 1096
903 1134
903 1263
903 1265
903 1340
903 1362
903 1379
904 1136
904 1138
904 1310
904 1343
904 1346
905 1079
906 1219
907 1042
909 998
910 1048
910 1105
910 1224
910 1273
910 1312
911 931
911 995
911 1010
911 1077
911 1298
911 1384
911 1392
912 1004
912 1047
912 1145
912 1239
913 922
913 985
913 992
913 1027
913 1084
913 1134
913 1143
913 1191
913 1192
913 1196
913 1233
913 1256
913 1307
913 1335
913 1340
913 1351
913 1362
913 1391
914 983
914 998
914 1102
914 1259
915 1398
916 930
916 1189
917 1005
917 1114
917 1115
917 1190
917 1260
918 1103
919 1141
919 1152
920 1014
920 1223
920 1307
921 995
921 1155
921 1175
921 1179
921 1318
921 1376
921 1384
921 1397
922 942
922 945
922 982
922 992
922 1067
922 1076
922 1079
922 1106
922 1134
922 1135
922 1148
922 1320
922 1328
922 1338
922 1351
922 1394
923 1118
923 1139
923 1144
923 1158
923 1363
925 1044
925 1211
925 1242
925 1295
926 1020
926 1106
926 1263
926 1380
927 963
927 1061
927 1067
927 1076
927 1119
927 1134
927 1140
927 1148
927 1162
927 1196
927 1233
927 1286
927 1307
927 1320
927 1328
927 1338
927 1351
927 1379
927 1382
927 1394
928 943
928 950
928 989
928 1046
928 1082
928 1196
928 1252
928 1268
928 1286
928 1328
928 1379
929 931
929 1057
929 1112
929 1188
929 1294
929 1298
929 1389
930 1177
930 1189
930 1304
930 1313
930 1331
931 993
931 1036
931 1299
931 1329
931 1389
932 1013
932 1030
932 1068
932 1174
932 1275
932 1385
933 942
933 963
933 1034
933 1119
933 1220
933 1231
933 1280
933 1394
934 1089
934 1140
934 1320
935 1035
935 1072
935 1076
935 1085
935 1096
935 1196
935 1223
935 1233
935 1268
935 1340
935 1388
936 1224
936 1232
936 1273
936 1369
937 1071
937 1099
937 1250
937 1261
937 1310
938 955
938 998
938 1004
938 1098
938 1203
938 1221
938 1236
938 1395
939 960
940 1215
940 1249
940 1282
941 972
942 945
942 982
942 1020
942 1027
942 1034
942 1046
942 1079
942 1106
942 1119
942 1178
942 1191
942 1192
942 1238
942 1280
942 1338
942 1367
942 1379
943 963
943 978
943 1027
943 1034
943 1042
943 1067
943 1078
943 1082
943 1096
943 1127
943 1134
943 1157
943 1162
943 1191
943 1196
943 1263
943 1265
943 1280
943 1328
943 1338
943 1340
943 1367
943 1372
943 1379
944 1125
944 1185
944 1258
944 1314
944 1339
944 1377
945 1014
945 1020
945 1032
945 1042
945 1078
945 1079
945 1084
945 1148
945 1191
945 1199
945 1265
945 1338
945 1351
945 1360
945 1362
945 1372
945 1391
946 1063
946 1118
946 1209
946 1253
946 1324
947 992
947 1067
947 1220
947 1238
947 1274
947 1394
948 969
948 1000
948 1156
948 1164
948 1205
948 1221
948 1226
948 1245
948 1349
948 1376
949 970
949 972
950 963
950 992
950 1027
950 1032
950 1106
950 1135
950 1148
950 1196
950 1263
950 1362
950 1380
951 1032
951 1042
951 1058
951 1067
951 1089
951 1096
951 1107
951 1191
951 1352
951 1367
952 1230
953 1120
953 1122
953 1202
953 1215
953 1244
953 1249
953 1329
954 1345
954 1366
955 998
955 1004
955 1098
955 1203
955 1221
955 1236
955 1395
956 981
956 1015
956 1017
956 1146
956 1207
956 1235
956 1243
956 1279
956 1284
956 1302
957 1050
957 1164
957 1245
957 1288
958 962
958 1102
958 1137
958 1205
958 1259
958 1278
958 1349
959 1055
959 1116
959 1175
959 1193
959 1270
959 1297
959 1306
959 1353
959 1370
959 1385
960 982
960 1014
960 1034
960 1078
960 1082
960 1108
960 1127
960 1140
960 1231
960 1280
960 1338
960 1351
960 1362
961 1184
961 1324
961 1393
962 968
962 1022
962 1184
962 1258
962 1278
962 1327
962 1354
963 1003
963 1008
963 1034
963 1067
963 1089
963 1191
963 1220
963 1231
963 1256
963 1274
963 1320
963 1338
963 1367
963 1382
964 1133
965 991
965 1036
965 1355
965 1393
966 1019
966 1065
966 1095
966 1158
966 1342
966 1363
966 1365
966 1386
967 970
967 1004
967 1023
967 1065
967 1292
968 1070
968 1175
968 1221
968 1258
968 1278
968 1354
968 1390
969 1180
969 1193
969 1305
970 1109
970 1229
970 1317
971 1260
972 1044
972 1055
972 1095
972 1116
972 1170
972 1315
972 1321
973 1112
973 1350
974 1167
974 1248
975 1110
975 1310
975 1325
975 1348
976 1017
976 1198
977 1004
977 1165
977 1224
977 1273
977 1383
978 1076
978 1148
978 1196
978 1320
978 1338
979 1361
980 1122
980 1184
980 1282
981 1015
981 1212
981 1243
982 985
982 1003
982 1056
982 1067
982 1076
982 1079
982 1084
982 1106
982 1127
982 1143
982 1192
982 1328
982 1338
982 1340
983 998
983 1102
983 1259
985 992
985 1067
985 1076
985 1134
985 1178
985 1231
985 1233
985 1263
985 1280
986 1158
986 1254
986 1363
987 1236
987 1310
987 1395
988 1009
988 1023
988 1026
988 1038
988 1064
988 1090
988 1117
988 1133
988 1146
988 1396
989 1008
989 1032
989 1058
989 1076
989 1078
989 1127
989 1134
989 1220
989 1223
989 1238
989 1265
989 1274
989 1320
989 1352
989 1379
989 1388
990 1149
990 1197
990 1218
990 1234
990 1310
991 996
991 1064
991 1207
991 1279
991 1329
991 1355
992 1020
992 1027
992 1058
992 1082
992 1140
992 1142
992 1191
992 1233
992 1238
992 1274
992 1371
992 1391
993 1013
993 1026
994 1131
994 1186
994 1303
995 1294
995 1298
995 1384
996 1309
997 1039
997 1083
997 1255
999 1372
1000 1033
1000 1156
1000 1289
1000 1290
1000 1305
1000 1306
1000 1353
1001 1003
1001 1143
1002 1053
1002 1074
1002 1101
1002 1373
1003 1046
1003 1084
1003 1085
1003 1119
1003 1148
1003 1178
1003 1191
1003 1196
1003 1231
1003 1238
1003 1263
1003 1335
1003 1340
1003 1362
1003 1367
1003 1379
1003 1388
1003 1391
1003 1394
1004 1047
1004 1088
1004 1155
1004 1165
1004 1258
1004 1358
1005 1095
1005 1101
1005 1114
1005 1289
1006 1299
1006 1321
1007 1059
1007 1091
1007 1160
1007 1200
1007 1221
1007 1251
1007 1366
1007 1374
1008 1076
1008 1140
1008 1280
1008 1320
1008 1357
1008 1394
1009 1117
1009 1396
1010 1311
1010 1336
1010 1381
1011 1252
1013 1092
1013 1102
1013 1174
1013 1259
1014 1020
1014 1034
1014 1046
1014 1058
1014 1067
1014 1076
1014 1078
1014 1084
1014 1119
1014 1162
1014 1191
1014 1320
1014 1338
1014 1391
1015 1212
1015 1243
1017 1030
1017 1055
1017 1116
1017 1216
1017 1243
1017 1275
1017 1356
1017 1376
1018 1164
1018 1245
1019 1172
1019 1321
1020 1076
1020 1135
1020 1241
1020 1274
1020 1280
1020 1286
1020 1328
1020 1340
1020 1357
1020 1362
1021 1250
1021 1330
1021 1361
1022 1193
1022 1278
1022 1327
1023 1048
1023 1073
1023 1081
1023 1100
1023 1121
1023 1167
1023 1204
1023 1248
1023 1396
1024 1069
1024 1385
1025 1057
1025 1121
1025 1167
1025 1248
1026 1057
1026 1205
1026 1349
1026 1396
1027 1034
1027 1035
1027 1042
1027 1058
1027 1079
1027 1096
1027 1099
1027 1135
1027 1196
1027 1223
1027 1261
1027 1320
1027 1324
1027 1338
1027 1379
1028 1209
1029 1138
1029 1337
1030 1069
1030 1150
1030 1174
1030 1275
1030 1308
1030 1317
1031 1102
1031 1259
1031 1345
1032 1085
1032 1106
1032 1268
1032 1394
1033 1156
1034 1042
1034 1079
1034 1084
1034 1127
1034 1143
1034 1231
1034 1238
1034 1252
1034 1340
1034 1380
1035 1067
1035 1191
1035 1220
1035 1228
1035 1286
1035 1316
1035 1335
1035 1367
1035 1380
1035 1394
1036 1355
1037 1054
1037 1065
1038 1171
1038 1205
1038 1266
1038 1272
1038 1293
1038 1323
1038 1326
1038 1349
1038 1396
1039 1083
1039 1255
1040 1231
1040 1263
1040 1352
1041 1077
1041 1190
1041 1299
1041 1347
1041 1359
1041 1369
1041 1392
1042 1076
1042 1127
1042 1148
1042 1162
1042 1196
1042 1220
1042 1340
1042 1352
1042 1394
1043 1202
1044 1242
1044 1284
1044 1302
1045 1048
1045 1064
1045 1213
1045 1270
1046 1085
1046 1140
1046 1142
1046 1148
1046 1154
1046 1196
1046 1238
1046 1256
1046 1280
1046 1335
1046 1382
1046 1394
1047 1145
1047 1239
1048 1121
1048 1213
1048 1254
1048 1270
1048 1312
1048 1345
1049 1092
1049 1151
1049 1171
1050 1301
1051 1285
1051 1342
1051 1365
1051 1393
1052 1077
1052 1128
1052 1129
1052 1207
1052 1279
1052 1392
1053 1097
1053 1336
1053 1373
1054 1087
1055 1063
1055 1116
1055 1130
1055 1206
1055 1336
1055 1342
1055 1365
1056 1205
1056 1349
1057 1101
1057 1126
1057 1389
1058 1082
1058 1096
1058 1148
1058 1154
1058 1178
1058 1196
1058 1274
1058 1286
1058 1362
1059 1121
1059 1160
1059 1200
1059 1210
1059 1329
1060 1085
1061 1140
1062 1379
1062 1382
1063 1116
1063 1253
1063 1305
1063 1324
1064 1139
1064 1213
1064 1226
1064 1396
1065 1303
1066 1201
1067 1084
1067 1140
1067 1148
1067 1220
1067 1238
1067 1256
1067 1263
1067 1265
1067 1274
1067 1316
1067 1328
1067 1338
1067 1340
1067 1351
1067 1367
1067 1388
1068 1174
1069 1222
1069 1275
1069 1358
1070 1124
1070 1139
1070 1161
1070 1226
1070 1310
1070 1344
1070 1354
1071 1099
1071 1250
1071 1261
1071 1310
1073 1081
1073 1138
1073 1257
1073 1272
1073 1301
1073 1346
1076 1082
1076 1143
1076 1231
1076 1238
1076 1252
1076 1256
1076 1263
1076 1265
1076 1286
1076 1372
1076 1379
1076 1388
1076 1394
1077 1088
1077 1347
1077 1392
1078 1119
1078 1135
1078 1143
1078 1154
1078 1191
1078 1220
1078 1340
1078 1357
1078 1391
1079 1084
1079 1119
1079 1134
1079 1135
1079 1162
1079 1163
1079 1178
1079 1220
1079 1274
1079 1286
1079 1340
1079 1367
1079 1394
1080 1140
1080 1178
1081 1138
1081 1257
1081 1272
1081 1301
1081 1346
1082 1162
1082 1191
1082 1196
1082 1220
1082 1233
1082 1256
1082 1286
1082 1335
1082 1340
1082 1351
1082 1367
1082 1380
1082 1382
1083 1153
1083 1158
1083 1363
1084 1127
1084 1263
1084 1274
1084 1320
1084 1328
1084 1340
1084 1367
1084 1380
1085 1252
1085 1263
1087 1204
1088 1267
1088 1293
1088 1321
1088 1323
1088 1326
1088 1392
1089 1143
1089 1191
1089 1256
1089 1264
1089 1338
1089 1362
1089 1367
1089 1372
1090 1396
1091 1160
1091 1250
1092 1151
1092 1166
1092 1321
1092 1334
1093 1235
1093 1255
1093 1306
1093 1333
1093 1353
1095 1369
1095 1385
1096 1134
1096 1178
1096 1191
1096 1192
1096 1220
1096 1231
1096 1238
1096 1268
1096 1274
1096 1286
1096 1340
1096 1351
1096 1362
1097 1167
1097 1188
1097 1247
1097 1248
1097 1373
1098 1203
1098 1284
1098 1302
1098 1364
1099 1109
1099 1261
1100 1177
1101 1235
1101 1260
1101 1295
1102 1235
1102 1259
1102 1300
1102 1318
1102 1397
1103 1207
1103 1214
1103 1279
1103 1299
1104 1154
1105 1303
1105 1312
1106 1108
1106 1140
1106 1238
1106 1263
1107 1340
1107 1372
1107 1394
1108 1127
1108 1340
1108 1380
1109 1261
1109 1345
1110 1325
1111 1158
1111 1296
1111 1363
1112 1198
1112 1246
1112 1329
1112 1389
1113 1150
1113 1308
1114 1115
1114 1190
1114 1260
1115 1153
1115 1294
1116 1130
1116 1206
1116 1336
1116 1342
1116 1365
1117 1396
1118 1144
1118 1253
1119 1134
1119 1233
1119 1280
1119 1286
1119 1328
1119 1335
1119 1340
1119 1352
1119 1379
1119 1388
1120 1125
1120 1221
1120 1244
1121 1137
1121 1195
1121 1200
1121 1287
1123 1274
1123 1380
1124 1344
1124 1385
1125 1184
1125 1232
1125 1244
1125 1276
1125 1281
1125 1283
1125 1318
1125 1339
1125 1397
1126 1166
1126 1334
1127 1140
1127 1196
1127 1231
1127 1252
1127 1274
1127 1367
1127 1379
1127 1380
1128 1129
1128 1195
1128 1215
1128 1249
1129 1195
1129 1215
1129 1249
1130 1170
1130 1206
1131 1186
1131 1303
1132 1196
1133 1258
1133 1318
1133 1396
1133 1397
1134 1154
1134 1218
1134 1252
1134 1263
1134 1265
1134 1351
1134 1394
1135 1143
1135 1220
1135 1335
1135 1340
1136 1343
1137 1190
1137 1285
1137 1310
1137 1375
1137 1393
1138 1276
1139 1144
1139 1221
1139 1294
1140 1178
1140 1286
1140 1335
1140 1338
1140 1340
1140 1357
1140 1360
1140 1391
1141 1152
1141 1237
1143 1148
1143 1191
1143 1233
1143 1286
1143 1335
1144 1158
1144 1363
1145 1167
1145 1239
1145 1248
1145 1260
1146 1243
1146 1346
1146 1396
1147 1210
1147 1368
1148 1162
1148 1163
1148 1268
1148 1362
1148 1379
1149 1298
1150 1170
1150 1271
1150 1275
1150 1287
1150 1289
1150 1308
1151 1171
1153 1184
1153 1300
1154 1280
1154 1328
1154 1394
1156 1289
1156 1290
1156 1305
1156 1306
1156 1353
1158 1235
1158 1296
1158 1363
1158 1368
1159 1236
1159 1395
1160 1200
1160 1221
1160 1251
1160 1366
1160 1374
1161 1169
1161 1180
1161 1197
1161 1336
1161 1348
1162 1191
1162 1220
1162 1233
1162 1265
1162 1335
1162 1372
1162 1388
1162 1391
1163 1335
1163 1340
1164 1245
1164 1254
1164 1258
1164 1377
1165 1224
1165 1273
1165 1383
1166 1175
1166 1184
1166 1211
1166 1334
1167 1197
1167 1239
1167 1248
1167 1266
1167 1290
1167 1292
1168 1207
1168 1240
1168 1279
1169 1221
1169 1293
1170 1206
1170 1290
1170 1308
1173 1284
1173 1302
1174 1275
1174 1385
1175 1334
1175 1354
1177 1337
1178 1191
1178 1220
1178 1233
1178 1256
1178 1307
1178 1320
1179 1182
1180 1345
1183 1377
1184 1210
1184 1221
1184 1278
1184 1329
1184 1334
1185 1314
1185 1339
1186 1210
1187 1238
1187 1252
1188 1389
1190 1347
1191 1252
1191 1280
1191 1338
1192 1280
1192 1328
1192 1382
1193 1327
1195 1211
1195 1295
1196 1238
1196 1241
1196 1328
1196 1335
1196 1340
1196 1372
1196 1380
1197 1214
1197 1248
1199 1223
1199 1286
1199 1394
1200 1210
1200 1329
1202 1224
1202 1273
1202 1300
1202 1309
1202 1368
1203 1284
1203 1302
1203 1364
1204 1348
1205 1229
1205 1304
1205 1313
1205 1342
1205 1349
1205 1365
1207 1216
1207 1243
1207 1279
1207 1356
1208 1262
1209 1240
1209 1253
1210 1257
1210 1318
1210 1374
1210 1397
1211 1242
1211 1258
1211 1305
1211 1334
1213 1270
1214 1270
1214 1272
1215 1234
1215 1249
1215 1298
1216 1226
1216 1279
1216 1356
1217 1393
1218 1294
1218 1324
1219 1310
1220 1265
1220 1268
1220 1280
1220 1307
1220 1328
1220 1335
1220 1379
1220 1380
1220 1394
1221 1244
1221 1323
1221 1326
1221 1354
1222 1266
1223 1231
1223 1238
1223 1263
1223 1268
1224 1266
1224 1273
1224 1285
1224 1312
1225 1251
1225 1322
1226 1356
1228 1252
1229 1301
1229 1309
1229 1349
1231 1252
1231 1265
1231 1274
1231 1280
1231 1316
1231 1320
1231 1338
1231 1362
1232 1292
1232 1333
1233 1256
1233 1265
1233 1274
1233 1307
1233 1340
1234 1249
1234 1297
1235 1243
1235 1259
1235 1324
1235 1363
1235 1374
1236 1395
1238 1265
1238 1286
1238 1340
1238 1382
1239 1248
1239 1260
1240 1281
1240 1283
1240 1375
1241 1352
1241 1394
1242 1295
1243 1279
1243 1284
1243 1302
1245 1254
1245 1258
1245 1377
1246 1319
1247 1293
1248 1266
1248 1290
1248 1292
1249 1298
1250 1266
1250 1300
1250 1330
1251 1322
1252 1263
1252 1328
1252 1335
1252 1362
1253 1324
1254 1288
1254 1359
1254 1374
1255 1288
1256 1286
1256 1307
1256 1335
1256 1340
1256 1357
1258 1278
1258 1318
1258 1339
1258 1354
1258 1397
1259 1300
1259 1318
1259 1397
1260 1285
1263 1265
1263 1328
1263 1338
1263 1379
1264 1372
1265 1280
1265 1320
1265 1379
1265 1388
1266 1273
1268 1307
1268 1372
1268 1380
1268 1388
1270 1317
1270 1329
1271 1308
1273 1285
1273 1312
1274 1320
1274 1328
1274 1335
1274 1351
1274 1379
1275 1308
1275 1317
1276 1301
1276 1318
1276 1397
1278 1327
1278 1354
1279 1356
1280 1338
1280 1351
1280 1372
1280 1380
1281 1283
1282 1305
1282 1390
1284 1302
1286 1328
1286 1340
1286 1351
1286 1379
1287 1308
1287 1321
1288 1368
1289 1295
1289 1308
1290 1346
1291 1292
1294 1342
1294 1365
1294 1384
1294 1389
1295 1301
1296 1363
1298 1317
1298 1331
1298 1384
1298 1389
1299 1321
1299 1347
1299 1364
1300 1383
1300 1393
1303 1332
1304 1313
1304 1348
1304 1349
1304 1366
1306 1353
1310 1325
1311 1381
1313 1348
1313 1349
1313 1366
1314 1339
1315 1329
1315 1366
1316 1335
1316 1340
1318 1397
1320 1340
1320 1360
1320 1367
1320 1372
1320 1388
1323 1326
1325 1348
1328 1340
1328 1357
1328 1372
1328 1379
1329 1369
1330 1361
1335 1380
1336 1373
1339 1377
1340 1362
1342 1349
1342 1365
1342 1393
1344 1385
1347 1359
1347 1369
1347 1392
1349 1365
1350 1385
1351 1360
1351 1388
1354 1390
1355 1393
1357 1367
1360 1391
1362 1372
1362 1378
1363 1368
1365 1393
1367 1372
1367 1382
1369 1390
1372 1391
1379 1380
1382 1388
