0 83
0 163
0 190
0 208
0 252
1 51
1 80
1 102
1 152
1 156
1 226
1 227
1 260
1 321
2 21
2 35
2 58
2 141
2 195
2 214
2 235
2 247
2 283
2 301
2 332
3 40
3 146
3 174
3 216
3 239
3 253
4 92
4 180
4 186
4 212
4 326
5 39
5 43
5 125
5 190
5 210
5 323
6 16
6 22
6 32
6 38
6 50
6 87
6 163
6 274
6 275
6 297
7 33
7 61
7 89
7 93
7 122
7 189
7 214
7 220
7 240
7 256
7 291
7 310
8 49
8 110
8 115
8 168
8 216
8 244
8 272
8 343
9 35
9 128
9 162
9 214
9 228
9 245
10 88
10 98
10 108
10 128
10 136
10 144
10 209
10 237
10 247
10 312
11 22
11 23
11 33
11 70
11 142
11 157
11 210
11 239
11 257
11 313
12 81
12 84
12 99
12 151
12 317
12 337
12 346
13 71
13 98
13 109
13 189
13 200
13 314
13 345
14 122
14 126
14 138
14 164
14 230
14 258
14 317
15 29
15 94
15 175
15 181
15 275
15 286
15 309
16 82
16 138
16 139
16 160
16 199
16 279
17 48
17 89
17 120
17 217
17 250
17 252
17 262
17 277
17 341
18 62
18 120
18 127
18 142
18 154
18 206
18 301
18 308
19 32
19 37
19 76
19 86
19 189
20 54
20 165
20 178
20 230
20 255
20 272
21 33
21 97
21 125
21 131
21 306
22 28
22 60
22 93
22 104
22 110
22 188
22 201
22 222
22 267
22 281
22 330
23 59
23 77
23 159
23 216
23 223
23 235
23 236
23 300
23 308
24 65
24 74
24 80
24 215
24 218
24 238
24 263
24 287
24 303
25 249
25 294
25 328
25 341
26 27
26 88
26 102
26 106
26 131
26 132
26 181
26 195
26 296
26 328
26 347
27 39
27 41
27 136
27 178
27 239
27 284
27 318
27 323
28 68
28 83
28 164
28 183
28 189
29 72
29 90
29 243
29 244
29 322
29 342
30 74
30 80
30 219
30 275
30 293
30 310
30 321
31 92
31 130
31 251
32 39
32 147
32 166
32 192
32 195
32 214
32 318
33 87
33 96
33 139
33 194
33 215
33 265
33 277
33 280
34 35
34 63
34 66
34 81
34 95
34 118
34 137
34 235
34 252
34 291
34 308
34 346
35 118
35 171
35 192
35 268
35 315
35 320
36 82
36 85
36 122
36 134
36 143
36 159
36 178
36 181
36 243
36 269
37 48
37 72
37 101
37 120
37 148
37 151
37 203
37 212
37 239
37 247
37 316
38 69
38 99
38 160
38 194
38 215
38 296
38 300
39 134
39 207
39 225
39 229
39 241
39 256
39 306
39 316
39 320
39 322
40 70
40 108
40 182
40 231
40 263
40 266
40 309
41 116
41 154
41 220
41 241
41 257
41 285
41 300
42 109
42 117
42 168
42 197
42 198
42 235
42 273
42 315
43 78
43 199
43 245
43 263
43 285
44 62
44 77
44 78
44 98
44 126
44 130
44 163
44 172
44 222
44 268
44 303
44 306
44 316
45 167
45 194
45 202
45 237
45 325
45 333
46 60
46 242
46 281
47 69
47 102
47 142
47 149
47 151
47 182
47 194
47 217
47 331
48 86
48 238
48 242
49 62
49 240
50 80
50 217
50 219
50 248
50 255
50 276
50 308
50 331
51 101
51 115
51 148
51 165
51 181
51 199
51 208
51 292
52 70
52 86
52 139
52 193
53 128
53 184
53 221
53 250
53 273
53 311
54 57
54 69
54 106
54 115
54 136
54 158
54 164
54 174
54 181
55 89
55 154
55 177
55 215
55 294
56 107
56 167
56 291
56 319
56 326
57 141
57 142
57 147
57 175
57 212
57 216
57 298
57 315
57 335
58 147
58 148
58 151
58 170
58 203
58 218
58 237
58 262
58 307
58 315
59 112
59 131
59 152
59 256
59 258
59 275
59 281
59 293
59 300
59 306
60 72
60 239
60 256
60 318
60 321
61 74
61 76
61 85
61 168
61 338
62 87
62 147
62 278
62 283
62 311
62 318
62 340
63 75
63 121
63 122
63 142
63 167
63 194
63 196
63 236
63 239
63 324
64 75
64 86
64 108
64 245
64 323
65 118
65 128
65 246
65 251
65 292
65 322
65 327
66 69
66 117
66 149
66 190
66 240
66 264
67 82
67 132
67 160
67 165
67 282
68 90
68 138
68 154
68 175
68 200
68 211
68 218
68 227
68 250
68 262
68 296
68 332
69 118
69 131
70 83
70 85
70 98
70 127
70 273
70 277
70 279
70 335
71 103
71 161
71 165
71 244
71 312
71 327
72 142
72 159
72 172
72 224
72 265
72 280
72 339
73 130
73 146
73 193
73 201
73 242
73 328
73 349
74 152
74 191
74 201
74 250
74 251
74 268
74 269
74 334
75 94
75 192
75 272
75 338
76 88
76 90
76 91
76 134
76 189
76 202
76 208
76 209
76 226
77 82
77 111
77 147
77 197
77 203
77 209
77 279
77 305
77 312
77 326
78 168
78 175
78 218
78 239
78 255
78 257
78 318
78 319
78 335
79 87
79 97
79 145
79 202
79 264
79 311
79 321
80 228
80 288
81 184
81 259
81 269
81 274
81 280
81 291
81 335
82 99
82 100
82 164
82 196
82 227
82 281
82 335
83 197
83 219
83 242
83 305
84 135
84 174
84 181
84 300
85 128
85 143
85 191
85 236
85 314
85 341
86 100
86 104
86 112
86 179
86 188
86 191
86 258
86 283
86 324
87 92
87 157
87 160
87 162
87 171
87 191
87 240
87 244
87 295
87 301
87 312
88 225
88 245
88 267
89 118
89 136
89 181
89 214
89 320
90 221
90 254
90 267
90 309
91 134
91 153
91 190
91 211
92 127
92 163
92 176
92 196
92 200
93 141
93 189
93 208
93 210
93 229
93 238
93 260
93 299
94 119
94 155
94 156
94 184
94 193
94 195
94 274
94 288
95 193
95 227
95 250
95 279
95 304
95 312
95 327
96 143
96 213
96 231
96 272
96 290
96 340
97 116
97 121
97 167
97 213
97 215
97 315
98 150
98 175
98 177
98 213
98 240
98 265
98 302
98 319
98 326
99 121
99 132
99 134
99 237
99 256
99 284
99 304
99 313
100 111
100 124
100 136
100 152
100 153
100 327
101 132
101 192
101 344
102 312
102 340
103 117
103 226
104 127
104 139
104 233
104 254
104 346
105 119
105 159
105 293
105 325
105 340
105 344
106 194
106 296
106 342
107 110
107 122
107 152
107 205
107 283
108 154
108 166
108 225
108 226
108 232
108 236
108 276
108 295
108 332
109 189
109 194
109 252
109 297
109 329
109 333
110 176
110 205
110 253
110 260
110 267
110 340
111 126
111 129
111 192
111 260
111 291
111 304
111 325
112 119
112 141
112 152
112 158
112 281
112 283
112 315
112 329
113 140
113 142
113 167
113 172
113 189
113 235
113 343
114 115
114 183
114 203
114 226
114 250
114 332
114 335
116 136
116 190
116 196
116 205
116 216
116 301
116 305
116 334
116 337
117 235
117 272
117 295
117 316
117 339
118 127
118 139
118 150
118 177
118 182
118 197
118 214
118 223
118 272
118 319
119 172
119 179
119 292
119 311
119 339
119 340
120 141
120 155
120 281
121 176
121 251
121 252
121 257
121 258
121 321
122 232
122 258
122 289
122 293
122 326
122 348
123 150
123 175
123 193
124 179
124 200
124 226
125 151
125 169
125 291
126 154
126 181
126 200
126 293
126 309
127 198
127 267
127 278
127 319
128 175
128 240
128 258
128 294
129 139
130 188
130 202
131 141
131 198
131 240
131 277
131 330
132 254
132 258
132 291
132 307
132 321
133 135
133 166
133 203
133 221
133 222
133 245
133 269
133 312
134 303
135 163
135 201
135 253
136 230
136 262
136 280
137 156
137 238
137 240
137 255
137 315
137 333
138 145
138 204
138 224
138 241
138 288
138 321
139 142
139 149
139 156
139 211
139 261
139 349
140 143
140 147
140 229
140 244
140 247
140 268
140 293
140 313
141 204
141 212
141 315
142 159
142 163
142 204
142 228
142 289
142 293
142 300
143 144
143 173
143 199
143 309
143 318
143 330
143 339
144 349
145 177
145 227
145 261
145 316
145 335
146 221
146 285
147 148
147 149
147 283
147 284
148 172
148 181
148 198
148 255
149 172
149 281
149 312
150 159
150 204
150 217
150 283
150 340
150 341
151 155
151 189
151 273
151 307
151 348
152 181
152 207
152 241
152 282
153 174
153 195
153 230
153 255
153 333
153 346
154 167
154 195
154 210
154 293
154 298
155 181
155 234
155 300
155 315
155 319
156 175
156 277
156 303
157 187
157 278
157 285
157 294
158 176
158 215
158 225
158 226
158 311
159 206
159 289
159 328
159 335
160 172
160 245
161 192
161 277
161 329
162 169
162 254
162 264
162 320
162 322
162 324
162 349
163 214
163 263
163 265
163 290
164 235
164 305
164 348
165 168
165 181
165 303
165 320
166 221
166 301
166 305
167 234
167 309
167 323
168 171
168 245
168 311
168 321
169 182
169 202
169 280
170 211
170 218
170 223
170 245
170 250
170 261
170 345
171 177
171 186
171 328
172 176
172 216
172 256
172 284
172 325
173 222
173 227
173 316
173 329
174 210
174 253
175 206
175 229
175 294
176 188
176 190
176 332
177 249
178 228
178 268
179 242
179 290
179 304
179 327
180 198
180 210
180 213
180 218
180 232
180 324
181 199
181 252
181 255
181 310
182 223
182 231
182 243
183 267
183 276
183 343
184 223
184 344
185 224
185 278
185 279
186 204
186 220
186 262
186 273
186 297
186 330
186 337
187 246
187 299
187 316
188 211
188 258
189 262
189 315
190 220
190 274
190 294
191 197
191 260
191 263
191 330
192 224
192 326
192 327
192 347
193 250
193 298
193 339
193 340
194 216
194 225
194 278
195 196
195 200
195 282
195 300
196 239
196 300
196 336
197 258
197 283
197 303
198 229
200 301
201 252
201 287
201 319
201 338
202 336
203 278
203 281
203 303
203 331
203 336
203 340
204 232
204 258
204 267
204 299
205 292
205 306
205 323
206 230
206 271
206 317
206 349
207 213
207 244
207 297
207 299
209 315
209 328
209 336
210 275
210 283
210 342
211 232
211 273
211 290
211 313
211 325
211 333
212 242
212 248
212 281
212 311
212 337
213 225
213 289
213 293
213 305
213 316
213 340
214 239
214 241
214 277
214 278
215 235
215 243
215 256
215 268
215 272
216 219
216 322
216 347
217 219
217 238
217 289
217 301
218 307
218 311
219 231
219 243
219 273
219 310
220 266
220 334
220 349
221 267
221 299
221 340
222 341
223 335
224 226
224 242
224 293
225 251
225 287
226 307
226 317
227 246
227 271
227 301
227 345
228 277
229 238
229 295
230 241
230 339
231 290
232 260
232 285
232 315
232 319
233 273
233 294
234 262
235 262
236 290
236 310
237 245
238 261
238 275
238 283
238 295
238 320
239 258
239 346
240 249
240 260
241 272
241 288
241 347
241 349
242 277
242 282
242 307
243 246
243 311
243 326
243 339
244 326
245 275
246 304
247 266
247 268
247 302
247 334
248 258
248 291
248 293
248 312
248 322
248 349
249 251
249 296
249 326
249 345
250 256
250 327
250 338
251 277
253 276
253 284
253 305
254 312
254 319
254 332
255 336
257 305
258 293
260 291
260 341
261 311
261 323
262 265
262 272
262 282
262 317
262 326
263 277
264 293
264 299
264 339
265 271
265 280
265 287
265 296
267 274
267 279
268 303
269 282
269 314
269 316
270 290
271 298
271 302
272 306
273 274
273 306
273 329
273 341
274 296
274 306
275 280
276 296
276 317
279 313
280 299
281 292
281 317
282 311
283 340
283 349
284 301
285 310
286 299
288 321
290 334
294 309
294 324
294 347
295 296
295 339
295 346
296 299
297 339
297 340
298 317
299 326
300 316
302 333
302 343
306 310
307 327
307 332
308 337
308 347
308 348
309 330
310 341
311 339
312 332
313 322
313 339
314 326
315 339
315 345
319 327
319 339
320 329
320 348
321 324
322 328
328 330
329 342
330 345
331 342
333 345
335 345
336 348
340 345
340 349
341 348
