0 119
0 271
0 377
1 11
1 434
1 468
1 476
2 15
2 273
2 288
2 348
3 71
3 189
3 530
3 554
4 9
4 14
5 64
5 372
6 216
6 479
7 63
7 130
7 290
7 698
8 534
9 229
9 230
9 256
9 285
9 354
9 423
9 520
9 670
10 33
10 146
10 637
11 194
11 219
11 307
11 567
11 577
11 723
12 55
12 105
13 83
13 177
13 302
13 400
13 555
13 730
14 244
14 382
14 558
14 656
15 21
15 312
15 624
16 208
16 363
16 389
16 734
17 293
17 422
18 162
18 372
18 419
18 442
18 648
18 734
18 744
20 154
20 255
21 152
21 156
21 326
21 346
21 576
21 622
22 41
22 95
22 384
22 587
23 152
23 441
23 474
24 141
24 212
24 462
24 484
24 486
24 705
25 165
25 590
26 179
26 349
26 356
26 742
27 63
27 85
27 711
28 32
28 475
29 259
30 200
30 735
32 347
32 400
32 434
32 632
32 670
33 300
33 386
34 338
34 340
34 705
35 256
35 296
35 380
35 408
35 630
36 40
36 725
37 372
37 610
37 727
38 107
38 330
38 516
38 705
39 313
39 364
39 592
39 607
40 336
40 381
40 464
41 50
41 253
42 707
43 96
43 746
44 265
44 695
45 169
46 272
46 725
46 743
47 211
48 55
48 414
48 425
48 471
49 130
49 259
49 294
49 480
49 508
49 614
50 253
50 726
51 83
51 429
52 265
52 313
52 405
52 656
53 149
54 249
54 620
55 66
55 95
55 425
55 499
56 159
56 363
56 472
56 495
57 209
57 226
57 602
58 127
58 391
58 652
59 651
59 697
60 131
60 158
60 231
60 277
60 680
61 566
61 634
61 666
62 374
62 509
62 538
63 489
64 155
64 288
64 376
64 605
65 178
65 303
65 427
66 161
66 446
68 175
68 564
68 666
69 457
69 581
70 190
70 497
70 724
71 557
71 575
72 349
72 590
73 103
73 224
73 226
73 600
74 121
74 435
75 131
75 249
75 546
75 567
75 717
76 201
76 537
76 593
76 719
77 621
78 136
78 144
78 179
78 238
78 434
78 599
78 726
79 116
79 158
79 223
79 507
80 108
80 144
80 729
81 162
82 502
82 548
82 716
83 97
83 701
84 491
84 745
85 476
85 692
86 278
87 257
88 411
88 533
90 394
91 134
91 227
92 202
92 546
93 218
93 392
94 178
94 258
94 336
95 273
95 369
95 550
96 343
96 474
97 357
97 366
97 367
97 509
98 317
98 610
98 620
99 217
99 431
99 519
100 297
100 646
100 732
101 234
101 246
101 690
101 738
102 369
103 749
105 130
105 219
105 351
105 738
106 683
106 746
107 202
107 317
107 325
108 117
108 263
108 505
109 211
109 704
110 353
110 427
110 697
111 193
111 220
111 261
111 377
111 481
111 584
111 606
111 658
113 318
113 547
114 252
115 165
115 282
115 383
115 431
115 444
115 528
115 724
116 409
116 562
117 328
118 522
118 647
119 250
119 352
119 531
120 245
120 322
120 564
120 670
121 550
121 594
122 656
123 602
123 650
124 292
124 699
124 723
124 749
125 187
126 367
126 384
126 426
126 472
126 689
128 659
129 342
129 589
130 621
131 328
131 543
132 425
132 472
132 535
132 722
133 282
134 536
134 549
135 172
135 461
136 157
136 283
136 662
137 641
138 147
139 323
140 317
140 536
140 608
141 663
141 674
141 710
143 209
143 245
143 703
143 736
144 201
144 307
144 417
144 489
144 676
144 713
145 183
145 410
146 733
147 345
147 668
148 607
148 623
149 195
149 261
150 248
150 340
150 565
151 314
151 506
151 508
151 689
152 183
152 199
152 461
152 517
153 325
153 379
153 482
154 170
154 180
154 388
154 541
155 467
156 275
156 414
156 715
156 727
157 197
157 322
158 354
161 426
161 475
161 486
161 519
162 191
162 663
163 594
163 748
164 285
164 721
164 729
165 349
165 418
165 481
165 559
165 742
166 554
166 574
167 506
168 192
168 225
168 338
168 366
169 319
169 554
169 698
169 721
170 268
170 381
171 326
171 361
171 538
171 593
173 513
173 594
173 712
174 652
174 714
176 724
177 208
179 273
179 426
179 525
179 659
180 383
181 184
181 453
181 742
182 208
182 529
182 557
182 652
182 654
182 675
182 684
183 216
183 605
183 736
183 745
184 484
184 654
184 708
185 411
185 633
186 472
186 650
186 737
187 593
188 218
188 620
190 198
190 259
190 666
191 429
191 562
192 496
192 551
193 529
194 305
194 399
194 438
194 746
195 719
196 400
197 451
197 693
198 350
198 376
198 381
200 363
200 376
200 665
200 679
201 259
202 311
202 563
202 744
203 402
203 428
204 384
204 459
205 318
205 370
206 446
206 586
207 500
208 733
209 231
209 337
209 706
210 224
211 624
212 223
212 228
213 388
213 523
214 555
215 358
215 531
216 238
216 270
216 406
216 672
217 402
218 481
219 658
220 340
220 508
221 455
221 517
221 558
221 659
222 381
222 478
224 321
224 495
225 260
228 366
228 399
228 420
228 710
229 427
229 428
229 669
230 589
231 429
232 284
232 610
233 304
233 313
234 286
234 330
234 747
235 241
235 321
236 373
236 473
237 601
237 650
238 452
238 579
238 580
238 707
238 748
239 356
240 245
240 559
241 513
242 361
242 719
243 616
245 591
246 276
246 637
248 314
249 358
249 378
249 493
249 739
250 322
250 657
251 309
251 395
251 491
251 666
252 455
252 486
252 599
253 306
253 385
253 472
253 487
253 682
254 296
255 336
256 331
256 339
256 733
257 461
259 447
259 657
261 583
262 396
262 446
263 287
263 387
263 427
263 557
263 595
263 647
264 276
264 327
264 415
264 517
264 570
265 668
266 483
267 373
267 528
268 306
268 329
268 421
268 749
269 577
270 325
270 343
270 615
270 640
270 688
271 350
272 356
272 471
272 664
274 383
274 587
274 650
275 360
276 416
277 467
277 587
278 320
278 410
278 579
278 646
279 286
279 445
280 309
280 353
280 722
281 411
281 448
281 489
281 572
281 677
281 728
282 625
284 333
284 516
286 392
287 392
287 500
287 628
288 442
289 467
289 696
290 508
290 705
292 411
293 690
294 471
294 496
294 510
294 585
294 714
294 715
296 416
296 695
297 317
298 473
298 639
298 660
299 573
299 650
300 600
301 406
301 517
301 544
301 629
302 404
302 595
304 360
305 505
305 528
306 311
307 395
307 440
309 414
310 526
310 534
311 369
311 392
311 403
311 436
311 671
312 445
312 620
313 358
313 546
313 714
314 729
315 716
316 499
317 424
317 666
318 461
319 563
319 627
319 693
320 673
322 590
322 607
323 420
323 436
323 525
323 584
323 710
323 743
324 650
325 415
325 427
326 366
326 609
327 368
330 596
331 410
331 539
331 727
332 560
332 566
332 642
333 482
335 441
335 482
336 487
336 628
337 472
337 504
337 726
338 481
338 502
338 733
340 581
341 528
341 599
341 691
342 347
342 658
343 557
343 558
346 392
346 695
347 349
347 513
347 687
349 391
349 554
350 480
350 576
350 735
351 698
351 734
351 739
352 594
352 728
352 747
353 545
353 664
354 557
354 653
354 709
354 717
355 630
356 526
357 725
358 711
359 369
363 534
364 406
365 427
365 704
366 368
366 591
367 451
367 605
368 402
369 476
369 589
370 413
371 650
372 415
373 708
374 465
374 550
374 618
376 389
378 562
378 663
379 473
380 466
382 661
382 678
383 455
383 610
385 389
386 666
386 674
387 745
389 504
389 592
390 586
391 491
391 537
391 648
391 665
392 440
393 451
393 519
393 539
393 702
394 547
395 427
395 488
396 519
396 530
396 621
397 413
397 445
397 528
397 712
397 741
398 432
398 514
398 611
398 643
398 698
399 470
399 490
399 508
401 579
402 660
403 655
404 729
405 686
406 747
407 706
407 721
408 534
408 574
409 616
409 620
410 633
410 639
410 686
411 509
412 680
412 704
414 589
414 637
414 638
415 455
415 660
415 729
416 462
416 585
416 686
416 730
416 742
417 537
418 528
418 620
418 681
419 469
419 687
420 475
420 612
420 733
421 438
421 699
421 715
423 488
423 627
425 514
425 593
426 560
426 563
427 441
429 595
430 437
431 624
431 699
432 433
432 608
432 690
433 526
433 573
434 628
435 674
437 529
437 586
439 451
441 517
441 586
442 557
442 599
443 714
444 631
447 462
450 456
450 665
450 742
452 602
453 473
453 738
454 617
455 554
455 665
455 676
455 698
459 678
459 718
461 482
461 716
465 561
466 717
467 494
468 489
469 701
469 724
470 596
471 614
471 659
472 535
475 545
476 498
476 601
476 739
477 517
477 536
479 603
479 729
480 552
481 636
483 614
484 693
486 577
486 699
487 607
489 498
489 662
490 569
491 493
491 534
491 682
492 677
492 680
493 708
496 551
498 589
498 685
499 620
499 652
500 572
501 656
501 695
503 549
506 745
508 587
509 557
509 648
510 685
512 591
512 614
513 618
513 622
513 728
514 570
514 647
514 698
515 707
516 735
517 742
518 600
521 739
522 598
522 722
523 570
523 610
523 662
524 555
527 550
528 663
529 661
530 692
532 610
542 604
543 618
545 604
546 587
549 587
550 606
550 716
553 647
553 688
554 620
557 689
558 590
558 620
558 733
559 718
560 635
563 741
565 628
568 641
568 660
568 684
570 586
571 695
573 725
575 615
577 595
579 665
579 729
583 721
585 730
586 746
587 598
588 614
588 625
588 731
592 743
594 619
595 673
596 667
599 656
601 677
603 698
604 708
606 661
607 714
608 681
612 625
612 685
614 641
615 740
622 672
624 640
627 681
630 720
632 674
632 699
634 686
634 689
635 669
635 694
636 652
641 647
641 695
647 710
654 716
657 665
658 730
658 747
661 686
664 712
671 727
673 722
680 733
683 695
685 688
687 713
689 717
699 727
701 724
713 727
714 749
719 727
