0 13
0 38
0 106
0 188
0 215
0 249
0 370
0 471
0 611
0 707
0 803
0 806
0 877
1 22
1 170
1 203
1 231
1 283
1 316
1 349
1 404
1 479
1 531
1 552
1 594
1 623
1 660
1 941
1 986
2 80
2 107
2 127
2 202
2 203
2 226
2 258
2 320
2 359
2 362
2 390
2 466
2 476
2 532
2 571
2 610
2 659
2 736
2 764
2 777
2 829
2 835
2 866
2 879
2 900
2 911
3 39
3 62
3 316
3 347
3 435
3 464
3 562
3 593
3 640
3 690
3 721
3 737
3 844
3 919
3 938
3 967
4 80
4 106
4 146
4 212
4 268
4 306
4 439
4 478
4 527
4 533
4 675
4 693
4 731
4 748
4 835
4 847
4 855
4 867
4 882
4 896
4 916
4 938
5 85
5 131
5 266
5 292
5 334
5 364
5 380
5 397
5 403
5 437
5 632
5 649
5 664
5 677
5 714
5 721
5 729
5 743
5 748
5 772
5 910
6 100
6 119
6 191
6 217
6 226
6 275
6 309
6 334
6 371
6 374
6 381
6 426
6 438
6 455
6 507
6 698
6 739
6 817
6 858
6 885
6 890
6 925
6 964
6 998
7 18
7 69
7 313
7 385
7 412
7 429
7 480
7 481
7 559
7 650
7 661
7 761
7 850
7 873
7 877
7 906
7 954
8 106
8 207
8 286
8 287
8 330
8 391
8 429
8 465
8 480
8 496
8 502
8 528
8 555
8 586
8 751
8 759
8 793
8 810
8 913
8 959
9 137
9 180
9 316
9 362
9 411
9 419
9 457
9 502
9 555
9 598
9 693
9 723
9 740
9 807
9 926
10 55
10 121
10 207
10 225
10 247
10 269
10 312
10 427
10 446
10 490
10 532
10 571
10 645
10 679
10 886
10 903
10 937
10 951
11 125
11 160
11 163
11 166
11 175
11 196
11 280
11 291
11 299
11 306
11 346
11 358
11 375
11 487
11 491
11 502
11 530
11 531
11 546
11 561
11 590
11 717
11 737
11 974
11 993
12 35
12 67
12 132
12 138
12 145
12 150
12 189
12 237
12 268
12 371
12 390
12 421
12 589
12 623
12 625
12 652
12 793
12 801
12 830
12 835
12 985
13 76
13 85
13 118
13 148
13 346
13 360
13 392
13 393
13 397
13 421
13 467
13 484
13 498
13 542
13 631
13 723
13 794
13 907
14 248
14 300
14 355
14 398
14 694
14 828
14 838
14 919
14 932
14 950
15 27
15 56
15 132
15 157
15 196
15 256
15 262
15 275
15 423
15 436
15 517
15 615
15 620
15 776
15 782
15 816
15 874
15 892
15 931
16 17
16 58
16 98
16 100
16 125
16 149
16 159
16 268
16 298
16 315
16 434
16 477
16 481
16 513
16 520
16 550
16 564
16 605
16 676
16 697
16 714
16 757
16 864
16 865
16 873
17 122
17 162
17 177
17 224
17 330
17 361
17 582
17 633
17 775
17 784
17 902
18 31
18 65
18 99
18 181
18 207
18 242
18 325
18 327
18 385
18 414
18 459
18 556
18 619
18 660
18 664
18 726
18 733
18 784
18 841
18 894
18 895
18 899
18 967
18 970
19 34
19 233
19 383
19 394
19 438
19 476
19 729
19 773
19 827
19 872
19 933
19 934
19 938
19 941
19 962
20 53
20 170
20 255
20 291
20 294
20 382
20 384
20 419
20 606
20 646
20 701
20 739
20 748
20 883
20 894
20 923
21 216
21 283
21 323
21 354
21 411
21 486
21 504
21 510
21 542
21 551
21 561
21 589
21 618
21 631
21 696
21 725
21 809
21 834
21 843
21 858
21 869
21 878
21 894
21 981
22 86
22 113
22 116
22 267
22 274
22 363
22 446
22 520
22 526
22 532
22 536
22 579
22 676
22 682
22 727
22 827
22 880
22 883
22 903
23 198
23 203
23 402
23 432
23 444
23 758
23 871
24 43
24 192
24 263
24 376
24 412
24 420
24 429
24 533
24 647
24 773
24 929
25 101
25 122
25 286
25 335
25 343
25 348
25 367
25 377
25 436
25 524
25 583
25 594
25 734
25 849
25 874
25 886
25 913
25 925
26 35
26 52
26 83
26 106
26 199
26 202
26 344
26 402
26 482
26 512
26 572
26 585
26 594
27 77
27 83
27 177
27 314
27 343
27 390
27 484
27 539
27 574
27 603
27 747
27 874
28 83
28 94
28 111
28 165
28 187
28 334
28 379
28 391
28 402
28 409
28 509
28 533
28 631
28 692
28 762
28 807
28 829
28 838
28 943
28 958
28 973
29 126
29 171
29 179
29 181
29 305
29 317
29 393
29 418
29 444
29 636
29 651
29 705
29 714
29 785
29 883
29 891
30 52
30 62
30 311
30 326
30 377
30 393
30 489
30 533
30 633
30 636
30 639
30 712
30 759
30 827
30 886
30 924
30 927
30 982
31 43
31 69
31 338
31 350
31 401
31 421
31 459
31 525
31 534
31 557
31 571
31 621
31 636
31 656
31 709
31 774
31 775
31 793
31 863
31 898
31 949
31 952
31 963
31 973
32 177
32 486
32 513
32 563
32 671
32 677
32 753
32 803
33 57
33 80
33 335
33 360
33 372
33 418
33 498
33 502
33 515
33 626
33 688
33 865
33 932
34 127
34 229
34 364
34 367
34 393
34 431
34 454
34 465
34 471
34 566
34 717
34 734
34 738
34 776
34 785
34 810
34 910
34 925
34 930
34 967
35 131
35 140
35 316
35 379
35 501
35 631
35 634
35 665
35 672
35 696
35 717
35 771
35 878
35 882
35 883
35 894
35 972
36 119
36 174
36 194
36 287
36 311
36 327
36 345
36 351
36 389
36 474
36 521
36 530
36 669
36 670
36 673
36 680
36 859
37 59
37 76
37 81
37 94
37 121
37 176
37 228
37 260
37 347
37 357
37 404
37 406
37 467
37 475
37 540
37 615
37 657
37 695
37 726
37 742
37 754
37 758
37 911
38 110
38 136
38 234
38 261
38 337
38 381
38 384
38 396
38 550
38 583
38 604
38 637
38 683
38 692
38 707
38 732
38 809
38 837
38 841
38 903
39 58
39 70
39 85
39 158
39 208
39 271
39 321
39 339
39 363
39 487
39 507
39 515
39 533
39 540
39 568
39 704
39 720
39 726
39 785
39 833
39 839
39 915
39 943
40 61
40 65
40 73
40 221
40 272
40 345
40 388
40 436
40 474
40 509
40 554
40 575
40 723
40 770
40 789
40 813
40 816
40 844
40 847
40 862
40 912
40 999
41 338
41 343
41 367
41 396
41 434
41 441
41 521
41 568
41 575
41 594
41 617
41 750
41 795
41 814
41 897
41 908
41 930
42 82
42 189
42 191
42 215
42 275
42 285
42 309
42 471
42 568
42 573
42 695
42 700
42 703
42 712
42 914
42 924
42 980
42 985
43 132
43 173
43 290
43 347
43 432
43 639
43 701
43 717
43 720
43 775
43 818
43 872
43 900
43 914
43 968
44 48
44 133
44 138
44 153
44 156
44 200
44 378
44 398
44 408
44 429
44 548
44 644
44 674
44 711
44 735
44 737
44 783
44 784
44 919
44 920
44 934
45 71
45 124
45 134
45 209
45 333
45 362
45 381
45 423
45 481
45 549
45 630
45 647
45 746
45 865
45 931
45 936
46 126
46 170
46 250
46 255
46 284
46 300
46 305
46 411
46 450
46 488
46 576
46 709
46 825
46 829
46 918
46 960
46 984
47 52
47 77
47 342
47 383
47 388
47 411
47 707
47 753
47 795
47 842
47 919
48 120
48 179
48 213
48 235
48 312
48 333
48 356
48 490
48 562
48 604
48 656
48 679
48 734
48 790
48 814
48 874
48 903
48 918
49 102
49 125
49 140
49 160
49 168
49 185
49 401
49 447
49 459
49 546
49 580
49 593
49 655
49 697
49 742
49 766
49 790
49 928
49 945
49 959
50 138
50 252
50 452
50 533
50 642
50 715
50 722
50 727
50 729
50 736
50 911
50 925
50 951
51 61
51 75
51 99
51 126
51 148
51 333
51 399
51 431
51 513
51 515
51 530
51 553
51 570
51 585
51 636
51 642
51 791
51 847
51 877
51 963
52 57
52 138
52 140
52 174
52 281
52 307
52 534
52 560
52 603
52 679
52 699
52 725
52 858
52 879
52 932
53 69
53 80
53 114
53 128
53 168
53 263
53 273
53 400
53 542
53 580
53 624
53 633
53 795
53 819
53 974
54 330
54 340
54 393
54 429
54 439
54 444
54 524
54 535
54 541
54 699
54 741
54 794
54 817
54 880
54 901
54 943
55 86
55 161
55 171
55 180
55 221
55 232
55 370
55 397
55 414
55 453
55 468
55 683
55 718
55 764
55 770
55 900
55 972
56 159
56 173
56 210
56 243
56 337
56 349
56 450
56 496
56 642
56 822
56 857
56 894
56 992
56 993
57 87
57 146
57 264
57 291
57 361
57 405
57 471
57 489
57 493
57 567
57 704
57 822
57 828
57 857
57 861
57 947
57 977
57 978
57 994
58 153
58 189
58 254
58 337
58 391
58 513
58 659
58 715
58 746
58 826
58 859
58 890
58 900
58 941
58 968
58 982
59 66
59 78
59 130
59 244
59 246
59 320
59 445
59 570
59 586
59 592
59 635
59 779
59 792
59 872
59 874
59 923
59 950
59 993
60 123
60 166
60 187
60 193
60 200
60 247
60 259
60 550
60 616
60 682
60 740
60 777
60 887
61 125
61 155
61 186
61 310
61 322
61 357
61 359
61 554
61 661
61 729
61 760
61 780
61 796
61 811
61 904
61 906
61 939
61 966
62 162
62 164
62 199
62 212
62 217
62 260
62 326
62 337
62 404
62 405
62 452
62 548
62 668
62 696
62 783
62 967
63 199
63 267
63 460
63 521
63 535
63 554
63 698
63 755
63 787
63 808
63 851
63 933
63 970
64 80
64 152
64 185
64 244
64 248
64 293
64 346
64 394
64 409
64 473
64 476
64 507
64 518
64 734
64 867
64 873
65 72
65 137
65 148
65 212
65 247
65 263
65 351
65 472
65 485
65 545
65 577
65 655
65 697
65 754
65 831
65 983
66 102
66 179
66 214
66 256
66 314
66 330
66 337
66 484
66 492
66 560
66 591
66 684
66 699
66 715
66 738
66 789
66 896
66 947
66 966
66 988
67 82
67 170
67 257
67 589
67 633
67 721
67 806
67 855
67 865
67 872
68 122
68 277
68 329
68 338
68 340
68 367
68 438
68 470
68 486
68 553
68 571
68 619
68 716
68 743
68 858
68 872
68 896
68 937
68 961
68 995
69 109
69 161
69 200
69 254
69 310
69 335
69 348
69 405
69 429
69 478
69 546
69 623
69 655
69 793
69 874
69 889
69 909
70 106
70 118
70 131
70 393
70 459
70 632
70 754
70 831
70 904
70 928
70 945
71 103
71 113
71 121
71 123
71 132
71 273
71 281
71 313
71 327
71 356
71 459
71 573
71 635
71 717
71 736
71 745
71 749
71 813
71 845
71 847
71 929
71 990
71 993
71 997
72 116
72 126
72 150
72 173
72 236
72 257
72 266
72 275
72 352
72 366
72 368
72 402
72 589
72 718
72 739
72 860
72 870
72 986
73 96
73 97
73 187
73 235
73 236
73 294
73 540
73 557
73 661
73 700
73 737
73 814
73 836
73 907
74 173
74 229
74 404
74 407
74 440
74 450
74 499
74 554
74 562
74 586
74 970
74 980
75 128
75 259
75 297
75 301
75 305
75 399
75 417
75 456
75 473
75 547
75 567
75 735
75 750
75 875
75 957
76 81
76 113
76 442
76 474
76 485
76 508
76 598
76 629
76 652
76 675
76 725
76 727
76 752
76 787
76 903
76 906
76 925
76 935
76 942
77 86
77 128
77 158
77 298
77 307
77 431
77 531
77 550
77 589
77 635
77 749
77 895
77 924
77 939
77 992
78 126
78 145
78 218
78 387
78 392
78 432
78 434
78 437
78 448
78 467
78 490
78 499
78 557
78 565
78 624
78 649
78 653
78 656
78 676
78 693
78 846
78 857
78 896
78 940
79 146
79 162
79 173
79 187
79 197
79 254
79 297
79 375
79 441
79 450
79 453
79 463
79 492
79 556
79 632
79 656
79 679
79 683
79 745
79 790
79 853
79 863
79 966
80 97
80 173
80 190
80 218
80 233
80 369
80 443
80 789
80 819
80 865
80 903
80 917
80 921
80 969
81 124
81 131
81 162
81 192
81 198
81 233
81 262
81 266
81 399
81 431
81 534
81 536
81 582
81 642
81 722
81 930
82 86
82 90
82 103
82 152
82 254
82 288
82 397
82 414
82 436
82 480
82 717
82 827
82 847
82 964
83 103
83 312
83 315
83 327
83 413
83 441
83 489
83 495
83 503
83 515
83 529
83 565
83 621
83 697
83 704
83 734
83 813
83 841
83 921
83 976
84 197
84 213
84 216
84 233
84 308
84 311
84 506
84 559
84 563
84 661
84 667
84 668
84 777
84 791
84 888
84 896
85 242
85 280
85 383
85 394
85 436
85 532
85 550
85 573
85 589
85 790
85 882
85 895
85 943
85 994
85 997
86 293
86 306
86 424
86 448
86 559
86 662
86 801
86 874
86 946
86 971
87 132
87 164
87 290
87 524
87 532
87 534
87 538
87 548
87 562
87 587
87 630
87 643
87 688
87 748
87 857
87 885
87 922
87 933
87 936
88 364
88 465
88 565
88 574
88 596
88 646
88 648
88 680
88 770
88 789
89 178
89 238
89 260
89 281
89 387
89 404
89 537
89 558
89 696
89 746
89 774
89 814
89 901
90 117
90 147
90 264
90 300
90 445
90 524
90 629
90 673
90 699
90 763
90 839
90 855
90 899
91 237
91 303
91 350
91 380
91 412
91 568
91 756
91 834
91 953
92 96
92 154
92 272
92 368
92 493
92 535
92 556
92 573
92 688
92 707
92 897
92 906
92 951
93 132
93 170
93 211
93 213
93 236
93 250
93 393
93 406
93 409
93 413
93 427
93 465
93 479
93 592
93 791
93 808
93 814
93 849
93 851
93 943
94 157
94 165
94 168
94 316
94 345
94 482
94 505
94 540
94 559
94 619
94 639
94 644
95 144
95 170
95 196
95 228
95 237
95 299
95 320
95 333
95 379
95 393
95 466
95 480
95 500
95 505
95 611
95 681
95 700
95 748
95 806
95 907
96 126
96 163
96 229
96 327
96 357
96 505
96 603
96 623
96 663
96 679
96 835
96 848
97 121
97 123
97 141
97 159
97 228
97 305
97 383
97 393
97 556
97 557
97 585
97 594
97 601
97 630
97 666
97 689
97 726
97 769
97 832
97 889
97 914
97 922
97 940
97 957
98 111
98 254
98 328
98 423
98 454
98 470
98 521
98 534
98 649
98 692
98 704
98 722
98 737
98 990
99 152
99 373
99 567
99 647
99 696
99 805
99 950
100 127
100 173
100 248
100 256
100 269
100 297
100 319
100 324
100 370
100 371
100 695
100 709
100 722
100 731
100 737
100 950
100 969
101 206
101 238
101 276
101 289
101 298
101 329
101 354
101 385
101 443
101 450
101 498
101 563
101 702
101 709
101 861
101 908
101 914
101 950
102 123
102 210
102 213
102 272
102 298
102 319
102 343
102 417
102 538
102 729
102 752
102 762
102 772
102 838
102 848
103 251
103 260
103 262
103 421
103 484
103 540
103 568
103 590
103 767
103 870
103 894
103 909
103 910
103 948
103 957
103 961
103 971
104 124
104 170
104 174
104 356
104 358
104 379
104 384
104 386
104 388
104 402
104 410
104 520
104 659
104 734
104 881
104 923
104 936
104 999
105 185
105 236
105 569
105 659
105 712
105 802
105 881
105 885
105 964
106 129
106 169
106 223
106 265
106 271
106 348
106 417
106 522
106 597
106 600
106 626
106 735
106 827
106 834
106 972
107 141
107 244
107 341
107 349
107 397
107 416
107 434
107 456
107 498
107 535
107 630
107 778
107 783
107 801
107 922
108 201
108 286
108 327
108 332
108 342
108 445
108 542
108 543
108 610
108 686
108 693
108 864
108 973
108 986
109 155
109 219
109 273
109 350
109 379
109 391
109 411
109 483
109 544
109 563
109 586
109 671
109 790
109 940
109 973
109 986
110 501
110 622
110 712
110 758
110 854
110 877
111 138
111 187
111 190
111 252
111 306
111 312
111 400
111 480
111 488
111 585
111 608
111 633
111 634
111 709
111 719
111 860
111 883
111 913
112 125
112 133
112 165
112 228
112 249
112 258
112 276
112 282
112 322
112 388
112 530
112 536
112 665
112 708
112 796
112 939
112 940
113 117
113 123
113 142
113 185
113 222
113 248
113 275
113 293
113 433
113 599
113 870
113 895
114 169
114 186
114 222
114 223
114 259
114 271
114 305
114 416
114 473
114 518
114 640
114 643
114 760
114 782
114 814
114 924
115 119
115 215
115 267
115 275
115 302
115 382
115 395
115 424
115 443
115 482
115 490
115 549
115 603
115 616
115 711
115 721
115 728
115 848
115 878
115 945
116 130
116 223
116 264
116 371
116 375
116 431
116 451
116 495
116 504
116 565
116 584
116 593
116 687
116 699
116 882
116 982
117 163
117 164
117 592
117 878
118 265
118 278
118 291
118 340
118 395
118 425
118 463
118 544
118 571
118 708
118 786
118 801
118 819
118 831
119 223
119 294
119 410
119 494
119 503
119 560
119 565
119 607
119 627
119 631
119 740
119 775
119 806
119 845
120 274
120 294
120 346
120 354
120 357
120 449
120 524
120 531
120 550
120 581
120 780
121 137
121 160
121 172
121 323
121 325
121 376
121 394
121 453
121 571
121 600
121 638
121 663
121 728
121 732
121 791
121 809
121 816
121 919
121 931
121 933
121 989
122 130
122 215
122 270
122 289
122 964
123 139
123 176
123 177
123 217
123 279
123 334
123 373
123 569
123 606
123 690
123 712
123 745
123 781
123 796
123 831
123 848
123 884
123 898
123 972
124 151
124 175
124 188
124 229
124 275
124 303
124 419
124 486
124 544
124 559
124 589
124 818
124 904
124 924
124 969
125 160
125 213
125 232
125 249
125 299
125 325
125 444
125 467
125 474
125 547
125 586
125 615
125 682
125 770
125 793
125 839
125 929
125 939
125 952
125 980
126 135
126 155
126 271
126 280
126 536
126 549
126 564
126 653
126 657
126 725
126 753
126 812
126 825
126 845
126 853
126 864
126 913
126 994
127 396
127 457
127 471
127 522
127 562
127 822
127 832
127 835
127 912
127 977
128 168
128 178
128 182
128 333
128 426
128 620
128 656
128 702
128 750
128 803
128 867
128 872
128 949
128 996
129 154
129 197
129 288
129 347
129 350
129 410
129 502
129 538
129 623
129 641
129 672
129 694
129 729
129 739
129 807
129 921
130 257
130 268
130 269
130 366
130 413
130 420
130 471
130 485
130 498
130 540
130 558
130 566
130 575
130 620
130 644
130 662
130 730
130 859
130 940
130 958
131 149
131 179
131 190
131 197
131 234
131 252
131 289
131 318
131 319
131 428
131 468
131 469
131 500
131 581
131 586
131 591
131 631
131 671
131 764
131 773
131 781
131 818
131 872
131 913
131 929
131 951
131 974
131 994
132 157
132 158
132 209
132 224
132 231
132 284
132 291
132 292
132 359
132 360
132 426
132 430
132 453
132 508
132 521
132 527
132 574
132 611
132 612
132 669
132 743
132 788
132 854
132 887
132 917
132 973
132 979
133 167
133 246
133 263
133 335
133 378
133 515
133 711
133 730
133 783
133 802
133 805
133 806
133 830
133 873
133 887
133 944
134 155
134 167
134 275
134 298
134 460
134 491
134 590
134 678
134 720
134 835
134 836
134 858
134 981
135 144
135 287
135 428
135 495
135 510
135 689
135 715
135 728
135 758
135 777
135 823
135 891
135 893
135 985
136 137
136 149
136 202
136 239
136 394
136 482
136 605
136 677
136 680
136 885
137 143
137 192
137 205
137 243
137 291
137 311
137 361
137 379
137 439
137 446
137 453
137 502
137 576
137 680
137 699
137 708
137 709
137 747
137 756
137 770
137 795
137 895
137 955
138 150
138 376
138 391
138 451
138 463
138 517
138 551
138 731
138 776
138 801
138 818
138 850
138 876
138 918
139 171
139 209
139 241
139 270
139 365
139 373
139 554
139 779
139 789
139 844
139 906
140 157
140 173
140 184
140 186
140 195
140 197
140 290
140 339
140 340
140 384
140 428
140 537
140 596
140 640
140 644
140 754
140 835
140 837
140 919
141 230
141 501
141 560
141 589
141 698
141 777
141 906
142 351
142 358
142 378
142 380
142 390
142 408
142 412
142 418
142 744
142 762
142 770
142 887
142 914
142 995
143 146
143 161
143 170
143 298
143 313
143 444
143 559
143 589
143 647
143 742
143 773
143 792
143 919
143 970
144 211
144 249
144 253
144 303
144 314
144 388
144 412
144 419
144 466
144 613
144 712
144 775
144 781
144 814
144 823
144 858
144 884
144 888
144 915
145 196
145 241
145 242
145 284
145 341
145 393
145 440
145 513
145 516
145 526
145 632
145 648
145 678
145 683
145 764
145 783
145 785
145 858
145 905
145 934
145 945
145 998
146 236
146 274
146 285
146 314
146 326
146 406
146 425
146 456
146 491
146 509
146 514
146 604
146 666
146 678
146 787
146 807
146 873
146 951
147 183
147 231
147 248
147 254
147 355
147 358
147 372
147 492
147 507
147 511
147 562
147 624
147 641
147 656
147 690
147 722
147 742
147 852
147 928
147 985
148 238
148 244
148 267
148 275
148 289
148 295
148 315
148 346
148 358
148 439
148 462
148 465
148 491
148 588
148 690
148 704
148 735
148 747
148 757
148 821
148 876
148 947
149 202
149 261
149 339
149 445
149 546
149 582
149 829
149 852
149 864
149 980
150 195
150 199
150 363
150 426
150 449
150 502
150 529
150 571
150 591
150 639
150 690
150 707
150 763
150 863
150 892
151 217
151 247
151 275
151 330
151 352
151 368
151 391
151 442
151 484
151 622
151 639
151 686
151 822
151 825
151 827
151 834
151 881
151 951
152 228
152 269
152 380
152 389
152 401
152 490
152 566
152 634
152 694
152 725
152 756
152 762
152 776
152 781
152 787
152 793
152 814
152 898
153 165
153 218
153 234
153 254
153 280
153 323
153 335
153 341
153 363
153 415
153 463
153 522
153 529
153 539
153 608
153 614
153 616
153 754
153 876
153 900
153 907
154 169
154 208
154 230
154 282
154 336
154 362
154 406
154 413
154 444
154 476
154 690
154 702
154 733
154 786
154 869
154 915
155 171
155 176
155 179
155 191
155 238
155 347
155 440
155 804
155 866
155 944
155 949
155 952
155 953
155 958
156 164
156 201
156 215
156 217
156 285
156 339
156 341
156 378
156 390
156 420
156 456
156 462
156 465
156 522
156 532
156 533
156 637
156 690
156 842
156 887
156 899
156 927
156 992
157 240
157 293
157 358
157 444
157 449
157 575
157 647
157 670
157 728
157 745
157 753
157 803
157 838
157 849
157 927
157 972
157 977
158 263
158 265
158 304
158 326
158 460
158 481
158 530
158 666
158 684
158 710
158 799
158 813
158 833
158 848
158 888
159 201
159 218
159 234
159 269
159 311
159 329
159 450
159 528
159 743
159 758
159 895
159 985
160 221
160 227
160 229
160 585
160 635
160 687
160 708
160 717
160 808
160 868
160 872
160 883
160 960
161 193
161 206
161 216
161 325
161 335
161 392
161 519
161 543
161 562
161 606
161 625
161 692
161 746
161 873
161 932
162 220
162 237
162 301
162 334
162 449
162 455
162 465
162 563
162 583
162 612
162 636
162 723
162 826
163 170
163 199
163 255
163 366
163 405
163 516
163 569
163 645
163 671
163 673
163 703
163 738
163 816
163 835
164 282
164 325
164 482
164 545
164 563
164 586
164 596
164 657
164 744
164 751
164 824
164 825
164 855
164 887
164 903
164 945
164 950
165 176
165 258
165 295
165 303
165 376
165 414
165 555
165 626
165 797
165 835
165 900
166 207
166 378
166 379
166 383
166 496
166 545
166 567
166 583
166 747
166 828
166 847
166 873
166 913
166 943
167 231
167 304
167 313
167 412
167 421
167 607
167 700
167 707
167 728
167 751
167 817
167 935
167 980
168 278
168 356
168 373
168 555
168 639
168 855
169 176
169 211
169 260
169 468
169 516
169 529
169 747
169 819
169 837
169 997
170 186
170 194
170 242
170 401
170 615
170 637
170 855
170 891
170 905
171 210
171 214
171 336
171 401
171 426
171 432
171 450
171 495
171 536
171 634
171 641
171 647
171 672
171 787
171 806
171 869
171 876
171 931
171 959
171 966
171 971
172 194
172 195
172 258
172 352
172 452
172 665
172 824
172 834
172 936
172 973
172 980
173 200
173 249
173 390
173 409
173 438
173 525
173 558
173 647
173 702
173 705
173 709
173 726
173 731
173 748
173 805
173 822
173 889
173 931
173 981
173 997
174 191
174 218
174 241
174 251
174 268
174 474
174 555
174 621
174 653
174 771
174 789
174 797
174 867
175 199
175 202
175 272
175 279
175 370
175 374
175 523
175 533
175 549
175 694
175 704
175 707
175 819
175 823
175 895
175 933
176 212
176 289
176 414
176 494
176 551
176 580
176 581
176 588
176 718
176 793
176 935
177 228
177 270
177 344
177 482
177 498
177 577
177 677
177 729
177 859
177 870
178 320
178 353
178 366
178 400
178 402
178 510
178 576
178 722
178 793
178 825
178 868
178 950
179 219
179 229
179 265
179 463
179 528
179 569
179 576
179 666
179 702
179 762
179 823
179 830
179 908
179 917
179 971
179 987
179 990
180 203
180 400
180 480
180 538
180 553
180 554
180 568
180 815
180 844
180 889
180 890
180 909
180 935
180 961
180 983
181 235
181 457
181 467
181 567
181 665
181 780
181 820
181 828
181 923
182 208
182 366
182 410
182 476
182 567
182 701
182 723
182 763
182 889
182 910
182 951
182 966
183 255
183 276
183 439
183 497
183 516
183 585
183 587
183 601
183 603
183 723
183 738
183 816
183 945
184 341
184 441
184 478
184 501
184 527
184 607
184 702
184 717
184 770
184 775
184 778
184 819
184 854
184 864
184 873
184 946
184 971
184 989
185 333
185 469
185 541
185 614
185 646
185 664
185 702
185 775
185 792
185 816
185 961
185 992
186 266
186 307
186 341
186 460
186 487
186 491
186 569
186 597
186 630
186 666
186 704
186 720
186 778
186 840
186 853
186 862
186 872
186 943
187 231
187 250
187 252
187 257
187 269
187 402
187 413
187 456
187 470
187 501
187 582
187 637
187 642
187 656
187 678
187 742
187 767
187 855
187 876
188 222
188 257
188 368
188 386
188 394
188 445
188 525
188 599
188 608
188 639
188 646
188 691
188 784
188 829
188 837
188 849
188 856
188 889
188 938
188 956
189 292
189 317
189 388
189 393
189 412
189 425
189 447
189 486
189 562
189 623
189 714
189 756
189 780
189 909
189 964
189 967
190 392
190 429
190 435
190 486
190 590
190 613
190 617
190 652
190 654
190 696
190 746
190 757
190 848
190 853
190 855
190 879
190 910
190 914
190 959
191 263
191 275
191 285
191 477
191 612
191 620
191 752
191 784
191 788
191 956
191 962
192 194
192 263
192 378
192 437
192 443
192 465
192 559
192 844
192 926
192 993
193 323
193 390
193 415
193 445
193 472
193 641
193 649
193 685
193 793
193 885
193 909
193 945
194 207
194 380
194 422
194 450
194 536
194 581
194 604
194 696
194 701
194 709
194 846
194 936
194 957
195 199
195 281
195 320
195 367
195 377
195 425
195 430
195 432
195 456
195 491
195 512
195 568
195 572
195 666
195 678
195 698
195 797
195 863
195 907
195 942
195 976
195 996
196 298
196 355
196 414
196 514
196 602
196 655
196 827
196 833
196 841
196 864
197 207
197 282
197 307
197 308
197 322
197 396
197 406
197 431
197 511
197 520
197 564
197 974
198 232
198 334
198 365
198 382
198 455
198 472
198 535
198 562
198 634
198 672
198 779
198 781
198 788
199 238
199 374
199 414
199 476
199 679
199 727
199 734
199 753
199 764
199 780
199 825
199 901
199 922
199 924
199 968
200 246
200 270
200 315
200 408
200 477
200 486
200 725
200 755
200 768
200 918
201 239
201 389
201 471
201 546
201 573
201 660
201 743
201 794
201 840
201 854
201 929
201 944
201 962
202 398
202 484
202 490
202 494
202 509
202 516
202 657
202 706
202 751
202 761
202 890
202 937
202 959
203 220
203 277
203 332
203 372
203 416
203 434
203 462
203 509
203 711
203 852
203 968
203 980
204 207
204 211
204 272
204 308
204 385
204 388
204 488
204 489
204 490
204 500
204 522
204 617
204 733
204 754
204 790
205 261
205 273
205 400
205 402
205 432
205 497
205 510
205 685
205 746
205 945
205 951
205 979
206 239
206 265
206 309
206 310
206 407
206 444
206 452
206 526
206 577
206 593
206 643
206 660
206 699
206 709
206 712
206 873
206 898
206 944
206 947
206 964
207 346
207 372
207 413
207 544
207 555
207 830
208 290
208 314
208 713
208 892
208 904
208 916
208 937
208 972
209 346
209 391
209 444
209 456
209 545
209 563
209 581
209 592
209 627
209 697
209 725
209 799
209 879
209 904
209 938
210 248
210 249
210 262
210 357
210 414
210 472
210 483
210 654
210 685
210 711
210 807
211 327
211 348
211 351
211 374
211 455
211 606
211 625
211 698
211 771
211 800
211 803
211 863
211 985
212 341
212 359
212 528
212 563
212 619
212 632
212 705
212 837
212 926
212 978
213 222
213 267
213 303
213 350
213 365
213 392
213 429
213 499
213 524
213 551
213 585
213 804
213 835
213 878
213 888
213 948
213 960
213 962
214 289
214 316
214 383
214 453
214 539
214 604
214 647
214 705
214 733
214 747
214 820
214 850
214 862
214 889
214 932
214 978
215 221
215 323
215 335
215 458
215 495
215 514
215 699
215 749
215 862
215 893
215 898
215 925
215 968
216 251
216 261
216 659
216 664
216 715
216 717
216 742
216 748
216 806
216 844
216 879
216 938
216 998
217 235
217 270
217 296
217 381
217 436
217 459
217 489
217 643
217 760
217 824
217 853
217 880
217 898
217 951
217 956
217 983
217 986
218 281
218 315
218 324
218 342
218 345
218 444
218 541
218 571
218 572
218 591
218 651
218 771
218 781
218 828
218 843
218 964
219 396
219 449
219 458
219 503
219 515
219 549
219 583
219 586
219 593
219 711
219 745
219 796
219 866
219 926
219 951
219 952
220 239
220 256
220 260
220 269
220 271
220 367
220 407
220 418
220 548
220 589
220 689
220 707
220 744
220 811
220 824
220 833
220 855
220 868
220 965
220 969
220 987
220 995
221 252
221 339
221 399
221 411
221 466
221 507
221 581
221 619
221 697
221 705
221 778
221 794
221 834
221 860
222 277
222 343
222 387
222 409
222 453
222 474
222 483
222 524
222 559
222 684
222 729
222 807
222 825
222 829
222 882
222 986
223 242
223 327
223 384
223 451
223 524
223 530
223 539
223 573
223 578
223 600
223 718
223 751
223 772
223 877
223 891
223 903
223 951
224 350
224 358
224 404
224 422
224 476
224 528
224 663
224 669
224 687
224 729
224 845
224 857
224 885
225 265
225 330
225 460
225 545
225 572
225 597
225 603
225 686
225 797
225 914
226 264
226 301
226 391
226 419
226 425
226 426
226 432
226 438
226 500
226 504
226 548
226 583
226 728
226 835
226 860
226 884
226 980
227 247
227 360
227 441
227 458
227 473
227 518
227 549
227 732
227 774
227 892
228 243
228 454
228 480
228 481
228 756
228 795
228 807
228 816
228 852
228 886
228 933
229 235
229 326
229 370
229 393
229 456
229 468
229 480
229 510
229 512
229 566
229 597
229 602
229 627
229 671
229 701
229 715
229 742
229 758
229 763
229 789
229 813
229 975
230 360
230 406
230 424
230 431
230 480
230 525
230 536
230 579
230 618
230 636
230 688
230 807
230 871
230 896
230 911
231 426
231 496
231 587
231 595
231 604
231 842
231 845
231 871
231 950
232 237
232 300
232 325
232 331
232 351
232 381
232 527
232 563
232 566
232 595
232 603
232 630
232 639
232 673
232 691
232 714
232 734
232 832
232 854
232 861
232 940
232 948
232 956
232 960
233 282
233 381
233 511
233 533
233 543
233 547
233 571
233 640
233 695
233 782
233 802
233 984
234 442
234 515
234 521
234 551
234 555
234 582
234 780
234 815
234 821
234 823
234 922
234 999
235 259
235 282
235 294
235 300
235 344
235 351
235 392
235 514
235 525
235 578
235 593
235 618
235 665
235 716
235 850
235 853
235 891
235 899
235 979
236 240
236 296
236 330
236 358
236 359
236 446
236 497
236 501
236 580
236 588
236 632
236 654
236 711
236 758
236 762
236 797
236 814
236 860
236 914
236 916
236 931
237 271
237 280
237 371
237 573
237 680
237 709
237 710
237 740
237 766
237 803
237 847
237 934
238 291
238 294
238 505
238 506
238 540
238 597
238 655
238 695
238 711
238 749
238 816
239 285
239 296
239 336
239 354
239 397
239 476
239 555
239 556
239 791
239 806
239 945
239 953
240 242
240 256
240 313
240 354
240 369
240 433
240 476
240 583
240 720
240 784
240 833
240 843
240 914
240 926
240 941
240 948
240 959
240 965
241 249
241 311
241 452
241 607
241 621
241 632
241 670
241 695
241 722
241 729
241 751
241 834
241 911
241 914
241 972
241 986
242 248
242 375
242 459
242 519
242 526
242 551
242 621
242 701
242 705
242 856
242 888
243 257
243 272
243 322
243 413
243 580
243 631
243 722
243 741
243 939
243 968
243 990
244 309
244 310
244 317
244 365
244 480
244 483
244 492
244 570
244 804
244 863
244 963
244 987
245 293
245 306
245 310
245 409
245 509
245 522
245 580
245 798
245 821
245 925
246 384
246 408
246 499
246 554
246 578
246 729
246 743
246 819
246 863
246 867
246 927
246 935
246 942
246 968
247 488
247 682
247 692
247 725
247 913
248 266
248 276
248 285
248 379
248 423
248 427
248 472
248 486
248 553
248 589
248 614
248 642
248 753
248 953
249 544
249 592
249 633
249 647
249 669
249 717
249 723
249 778
249 790
249 904
249 939
250 257
250 263
250 280
250 284
250 356
250 402
250 434
250 443
250 546
250 585
250 607
250 634
250 707
250 814
250 816
250 829
250 918
250 953
251 331
251 348
251 360
251 369
251 394
251 412
251 413
251 515
251 568
251 608
251 687
251 863
251 905
251 934
251 942
252 319
252 344
252 350
252 366
252 390
252 430
252 468
252 471
252 523
252 559
252 590
252 614
252 701
252 840
252 906
252 916
252 999
253 257
253 306
253 340
253 521
253 540
253 601
253 606
253 629
253 643
253 815
253 822
253 897
253 950
254 386
254 452
254 480
254 488
254 570
254 606
254 610
254 640
254 666
254 678
254 685
254 686
254 806
254 818
254 831
254 944
255 338
255 570
255 580
255 655
255 657
255 705
255 733
255 846
256 272
256 528
256 607
256 608
256 646
256 881
256 928
256 950
257 315
257 393
257 532
257 674
257 737
257 839
258 275
258 294
258 373
258 391
258 502
258 504
258 549
258 573
258 600
258 643
258 762
258 800
258 820
258 838
258 865
258 920
258 986
259 366
259 435
259 445
259 491
259 635
259 762
259 796
259 849
259 860
259 868
259 939
260 271
260 436
260 501
260 562
260 607
260 697
260 771
260 774
260 779
260 905
260 907
260 968
260 994
261 358
261 386
261 406
261 472
261 517
261 531
261 545
261 665
261 735
261 767
261 829
261 832
261 849
261 916
261 991
261 999
262 344
262 358
262 371
262 432
262 444
262 467
262 573
262 586
262 663
262 745
262 940
263 450
263 612
263 630
263 723
263 725
263 738
263 779
263 801
263 846
264 346
264 354
264 379
264 393
264 417
264 421
264 450
264 465
264 497
264 567
264 647
264 673
264 738
264 767
264 842
264 857
265 276
265 350
265 465
265 581
265 665
265 731
265 744
265 806
265 808
265 833
265 879
265 904
265 983
266 278
266 414
266 469
266 605
266 619
266 624
266 628
266 686
266 722
266 860
266 866
266 881
266 920
266 930
267 289
267 317
267 321
267 388
267 527
267 581
267 645
267 661
267 744
267 763
268 283
268 352
268 408
268 440
268 458
268 526
268 543
268 572
268 676
268 721
268 743
268 755
268 778
268 885
268 899
268 969
269 288
269 329
269 379
269 394
269 495
269 542
269 697
269 761
269 809
269 884
269 943
270 276
270 281
270 356
270 418
270 525
270 557
270 629
270 646
270 649
270 733
270 858
270 957
271 273
271 303
271 387
271 433
271 525
271 741
271 748
271 818
271 913
271 914
271 915
271 916
271 933
271 982
271 993
272 337
272 346
272 632
272 680
272 753
272 773
272 917
272 950
272 991
273 358
273 418
273 500
273 532
273 568
273 897
273 975
274 370
274 423
274 468
274 652
274 657
274 667
274 755
274 777
274 793
274 798
274 801
274 807
274 920
275 302
275 338
275 347
275 348
275 390
275 414
275 429
275 497
275 504
275 577
275 593
275 809
275 889
275 907
275 919
275 968
276 435
276 466
276 565
276 567
276 582
276 584
276 590
276 662
276 768
276 777
276 897
276 900
276 926
277 336
277 344
277 395
277 431
277 448
277 498
277 513
277 554
277 559
277 581
277 633
277 661
277 708
277 712
277 748
277 752
277 824
277 855
277 895
277 923
277 944
278 304
278 416
278 427
278 478
278 561
278 647
278 868
278 899
279 291
279 437
279 476
279 565
279 632
279 694
279 703
279 762
279 926
279 935
280 312
280 330
280 343
280 445
280 532
280 575
280 598
280 627
280 712
280 716
280 794
280 804
280 889
280 925
280 939
281 307
281 329
281 347
281 395
281 507
281 532
281 659
281 673
281 725
281 817
281 910
282 313
282 314
282 330
282 428
282 466
282 646
282 742
282 800
282 816
282 854
282 887
282 977
283 324
283 377
283 462
283 493
283 512
283 516
283 708
283 722
283 764
283 827
283 832
283 884
283 901
283 950
284 332
284 348
284 386
284 464
284 477
284 521
284 558
284 653
284 740
284 755
284 805
284 833
284 834
284 837
285 337
285 426
285 529
285 530
285 552
285 573
285 668
285 770
285 819
285 862
285 927
285 981
286 304
286 384
286 396
286 407
286 528
286 566
286 577
286 586
286 598
286 693
286 725
286 751
286 858
286 911
286 924
286 938
286 963
287 319
287 428
287 513
287 550
287 633
287 795
287 798
287 855
287 890
287 898
287 926
287 944
287 955
288 303
288 547
288 706
288 844
288 939
288 961
289 299
289 307
289 309
289 339
289 387
289 402
289 405
289 431
289 498
289 538
289 633
289 664
289 754
289 873
289 894
289 920
289 942
289 951
289 999
290 457
290 460
290 529
290 569
290 590
290 611
290 639
290 652
290 681
290 705
290 807
290 840
290 910
291 292
291 355
291 416
291 451
291 454
291 520
291 593
291 597
291 626
291 674
291 685
291 742
291 756
291 789
291 800
291 824
291 852
291 868
291 881
291 886
291 904
291 921
291 938
291 952
292 420
292 490
292 583
292 601
292 633
292 640
292 652
292 672
292 678
292 712
292 732
292 858
292 859
292 902
293 391
293 402
293 508
293 648
293 660
293 665
293 693
293 770
293 807
293 967
293 995
294 327
294 517
294 598
294 628
294 630
294 638
294 639
294 703
294 751
294 770
294 822
294 900
294 912
294 988
294 989
295 362
295 488
295 574
295 582
295 618
295 632
295 680
295 735
295 755
295 762
295 782
295 847
295 868
295 916
296 414
296 437
296 485
296 545
296 562
296 594
296 616
296 620
296 682
296 724
296 767
296 808
296 823
296 834
296 845
296 846
296 859
296 873
296 916
297 330
297 412
297 543
297 545
297 610
297 619
297 624
297 652
297 713
297 953
297 957
297 976
298 315
298 390
298 396
298 410
298 555
298 617
298 705
298 802
298 869
298 955
299 313
299 502
299 525
299 551
299 610
299 647
299 682
299 772
299 961
300 399
300 433
300 495
300 526
300 560
300 683
300 692
300 777
300 864
300 876
300 878
301 304
301 372
301 392
301 430
301 460
301 661
301 665
301 843
301 855
301 872
301 909
301 958
302 377
302 392
302 448
302 484
302 502
302 576
302 590
302 670
302 767
302 835
302 867
302 893
302 906
302 932
302 967
302 991
303 307
303 363
303 375
303 449
303 484
303 686
303 698
303 788
303 815
303 871
303 890
303 937
304 396
304 447
304 449
304 605
304 627
304 640
304 674
304 675
304 696
304 712
304 716
304 736
304 907
305 421
305 538
305 539
305 544
305 667
305 673
305 705
305 758
305 782
305 837
305 900
305 931
305 954
305 960
305 983
306 312
306 666
306 682
306 717
306 758
306 859
306 866
306 974
307 337
307 474
307 479
307 651
307 823
307 839
307 868
307 898
308 365
308 428
308 487
308 508
308 516
308 592
308 600
308 655
308 693
308 711
308 729
308 792
308 800
308 875
308 876
308 878
308 901
308 962
309 315
309 343
309 402
309 427
309 448
309 506
309 530
309 697
309 737
309 785
309 805
309 844
309 881
309 905
310 349
310 371
310 465
310 587
310 680
310 791
310 892
311 364
311 445
311 487
311 511
311 600
311 608
311 716
311 734
311 777
311 794
311 796
311 821
311 856
311 860
311 870
312 329
312 361
312 421
312 423
312 445
312 752
312 848
312 871
312 890
313 328
313 339
313 369
313 468
313 488
313 531
313 532
313 574
313 597
313 614
313 638
313 674
313 722
313 761
313 772
313 786
313 826
313 923
313 941
313 942
314 332
314 355
314 437
314 439
314 454
314 506
314 563
314 648
314 709
314 743
314 765
314 790
314 856
314 898
314 976
315 397
315 458
315 597
315 630
315 647
315 655
315 667
315 675
315 742
315 756
315 852
315 880
315 921
316 370
316 427
316 440
316 441
316 553
316 576
316 605
316 892
316 894
316 921
316 933
317 342
317 348
317 371
317 399
317 403
317 408
317 415
317 555
317 578
317 597
317 669
317 694
317 762
317 776
317 829
317 884
317 973
317 994
318 342
318 426
318 472
318 546
318 787
318 807
318 818
318 842
318 917
318 957
318 963
318 974
318 997
319 390
319 436
319 441
319 627
319 640
319 671
319 687
319 714
319 722
319 753
319 962
320 341
320 342
320 414
320 461
320 562
320 643
320 703
320 751
320 765
320 807
320 876
320 974
321 369
321 429
321 461
321 478
321 497
321 524
321 567
321 582
321 760
321 804
321 845
321 861
321 889
321 945
321 996
322 431
322 508
322 573
322 593
322 620
322 638
322 718
322 779
322 810
322 972
323 408
323 543
323 547
323 578
323 635
323 676
323 831
323 832
323 859
323 892
324 444
324 454
324 619
324 666
324 721
324 814
324 910
325 348
325 359
325 428
325 433
325 467
325 501
325 502
325 573
325 659
325 660
325 749
325 765
325 767
325 867
325 868
325 890
325 978
325 993
326 495
326 638
326 671
326 832
326 891
327 435
327 477
327 539
327 648
327 684
327 720
327 721
327 757
327 758
327 777
327 869
327 959
328 422
328 432
328 560
328 574
328 608
328 637
328 681
328 732
328 741
328 834
328 885
328 914
328 921
329 404
329 452
329 499
329 557
329 635
329 639
329 650
329 736
329 768
329 773
329 840
329 858
329 882
329 929
329 949
329 953
329 973
330 344
330 353
330 365
330 392
330 421
330 428
330 480
330 500
330 583
330 652
330 723
330 729
330 781
330 883
330 918
330 920
330 949
331 370
331 403
331 547
331 563
331 700
331 701
331 761
331 913
331 945
331 977
331 978
332 407
332 452
332 498
332 526
332 579
332 618
332 632
332 712
332 730
332 743
332 747
332 768
332 849
332 889
332 982
333 409
333 444
333 457
333 527
333 536
333 561
333 599
333 601
333 647
333 660
333 675
333 695
333 711
333 798
333 871
333 889
333 933
333 978
334 351
334 365
334 409
334 421
334 579
334 677
334 690
334 693
334 901
334 902
334 978
335 364
335 408
335 484
335 490
335 498
335 539
335 556
335 573
335 685
335 709
335 781
335 802
335 927
336 344
336 405
336 512
336 519
336 607
336 621
336 726
336 762
336 846
336 972
337 340
337 451
337 467
337 483
337 528
337 546
337 584
337 626
337 633
337 652
337 917
338 354
338 366
338 385
338 484
338 675
338 831
338 834
338 858
338 924
338 944
339 375
339 399
339 423
339 468
339 487
339 662
339 688
339 700
339 802
339 833
339 883
339 909
339 948
340 423
340 430
340 500
340 521
340 581
340 738
340 773
340 789
340 829
340 847
340 893
340 928
341 355
341 361
341 389
341 392
341 416
341 566
341 645
341 696
341 714
341 722
341 761
341 772
341 819
341 892
341 936
341 988
342 594
342 724
342 828
342 899
342 948
342 966
342 980
343 367
343 447
343 483
343 506
343 509
343 545
343 548
343 605
343 650
343 656
343 694
343 754
343 792
343 804
343 831
343 862
343 975
344 413
344 483
344 484
344 806
344 810
344 846
344 923
344 962
344 974
345 412
345 450
345 747
345 758
345 799
345 871
345 917
345 937
345 962
345 976
346 353
346 367
346 409
346 480
346 501
346 590
346 708
346 734
346 739
346 740
346 928
346 964
347 377
347 379
347 440
347 504
347 534
347 566
347 573
347 601
347 720
347 807
347 924
347 928
348 388
348 413
348 453
348 508
348 637
348 676
348 694
348 796
348 801
348 811
348 951
348 973
349 406
349 483
349 522
349 597
349 632
349 690
349 716
349 733
349 750
349 756
349 778
349 869
349 935
349 995
350 530
350 609
350 694
350 770
350 815
350 924
350 929
351 440
351 531
351 548
351 557
351 644
351 670
351 786
351 830
351 928
352 415
352 559
352 663
352 702
352 709
352 718
352 783
352 886
352 907
352 937
352 942
353 370
353 400
353 412
353 460
353 527
353 575
353 598
353 658
353 665
353 712
353 713
353 779
353 838
353 851
353 977
354 368
354 421
354 523
354 544
354 669
354 678
354 695
354 770
354 790
354 848
354 871
354 950
355 377
355 632
355 634
355 675
355 717
355 722
355 965
355 973
356 526
356 534
356 595
356 660
356 677
356 699
356 786
356 927
356 933
356 943
357 378
357 413
357 523
357 587
357 610
357 714
357 743
357 922
357 930
357 945
357 989
358 452
358 466
358 475
358 552
358 556
358 618
358 667
358 760
358 827
358 842
358 862
358 870
358 964
359 404
359 450
359 485
359 498
359 562
359 630
359 643
359 694
359 711
359 757
359 767
359 881
359 903
359 924
359 945
360 399
360 445
360 446
360 454
360 461
360 475
360 476
360 581
360 587
360 599
360 693
360 750
360 763
360 797
360 809
360 834
360 921
360 965
361 380
361 388
361 412
361 464
361 528
361 536
361 546
361 561
361 734
361 769
361 840
361 896
361 905
362 363
362 406
362 431
362 438
362 531
362 609
362 621
362 731
362 831
362 920
362 934
362 968
363 423
363 549
363 628
363 688
363 712
363 770
363 814
364 426
364 442
364 471
364 563
364 613
364 668
364 722
364 728
364 857
364 865
364 900
364 916
364 957
364 972
364 981
365 391
365 451
365 672
365 678
365 690
365 724
365 782
365 851
365 870
365 988
366 375
366 425
366 506
366 537
366 604
366 619
366 648
366 668
366 780
366 796
366 851
366 852
366 928
366 940
367 382
367 444
367 469
367 747
367 784
367 810
367 852
367 860
367 907
367 926
367 974
368 388
368 477
368 628
368 699
368 741
368 884
368 922
368 930
368 935
368 977
369 372
369 395
369 434
369 485
369 528
369 570
369 612
369 627
369 676
369 691
369 784
369 945
370 449
370 454
370 801
370 847
370 859
370 876
370 904
370 913
371 415
371 436
371 470
371 512
371 518
371 530
371 584
371 629
371 635
371 667
371 727
371 785
371 869
371 874
371 915
371 945
371 946
371 977
372 540
372 558
372 704
372 791
372 851
372 907
372 918
372 992
372 997
373 499
373 556
373 608
373 618
373 643
373 654
373 702
373 743
373 753
373 783
373 822
373 891
374 397
374 417
374 450
374 473
374 532
374 606
374 694
374 794
374 878
374 883
375 473
375 500
375 559
375 569
375 583
375 586
375 668
375 669
375 773
375 803
375 858
375 948
375 984
376 408
376 424
376 434
376 446
376 455
376 472
376 740
376 809
376 838
376 943
377 490
377 491
377 551
377 685
377 734
377 759
377 767
377 770
377 827
377 836
377 892
377 959
377 967
377 990
378 393
378 428
378 434
378 515
378 516
378 537
378 540
378 647
378 720
378 761
378 822
378 866
378 899
378 958
378 966
378 979
379 405
379 463
379 534
379 570
379 729
379 806
379 827
379 830
379 958
379 962
380 460
380 517
380 521
380 593
380 615
380 711
380 720
380 768
380 771
380 784
380 819
380 834
380 891
380 913
380 977
381 383
381 452
381 478
381 519
381 649
381 673
381 710
381 715
381 775
381 897
381 990
382 409
382 447
382 476
382 552
382 585
382 596
382 683
382 687
382 702
382 727
382 821
382 836
382 843
382 880
382 952
383 477
383 563
383 682
383 714
383 803
383 825
383 851
383 908
384 399
384 470
384 489
384 530
384 556
384 582
384 653
384 664
384 693
384 707
384 812
384 907
384 955
384 974
385 433
385 546
385 559
385 853
385 857
385 915
386 404
386 416
386 449
386 536
386 574
386 628
386 632
386 638
386 651
386 672
386 687
386 764
386 782
386 852
386 891
386 932
387 485
387 496
387 599
387 605
387 630
387 669
387 747
387 762
387 766
387 791
387 810
387 834
387 907
387 923
387 967
387 993
388 487
388 503
388 511
388 533
388 540
388 646
388 691
388 805
388 807
388 871
388 897
388 900
388 936
388 988
389 467
389 486
389 557
389 631
389 661
389 668
389 745
389 780
389 954
389 955
390 435
390 445
390 467
390 500
390 509
390 511
390 520
390 644
390 653
390 663
390 688
390 690
390 693
390 753
390 936
391 427
391 503
391 563
391 564
391 673
391 718
391 740
391 827
391 950
391 992
392 406
392 421
392 574
392 578
392 629
392 661
392 745
392 790
392 813
392 923
392 944
392 957
392 979
392 985
393 460
393 601
393 630
393 644
393 678
393 698
393 725
394 409
394 410
394 537
394 570
394 588
394 620
394 636
394 670
394 677
394 681
394 707
394 738
394 740
394 757
394 813
394 848
394 854
394 868
394 941
394 944
394 996
395 429
395 450
395 452
395 484
395 708
395 729
395 827
395 857
395 864
395 893
395 916
395 945
395 952
395 955
395 969
396 409
396 417
396 419
396 646
396 668
396 698
396 789
396 845
396 905
396 997
397 441
397 554
397 582
397 595
397 767
397 775
397 779
397 822
397 853
397 918
397 924
397 941
397 997
398 467
398 747
398 752
398 769
398 779
398 804
398 816
398 830
398 953
398 956
398 976
399 539
399 594
399 635
399 734
399 744
399 790
399 836
399 875
399 908
399 949
399 951
399 994
399 995
400 437
400 456
400 468
400 557
400 596
400 626
400 630
400 673
400 743
400 813
400 924
401 410
401 462
401 504
401 571
401 598
401 720
401 721
401 751
401 800
401 804
402 574
402 656
402 770
402 852
403 442
403 459
403 502
403 512
403 547
403 555
403 565
403 610
403 700
403 702
403 748
403 773
403 861
403 914
404 420
404 495
404 570
404 584
404 651
404 698
404 700
404 710
404 712
404 715
404 763
404 771
404 847
404 889
405 415
405 461
405 636
405 717
405 826
405 939
406 425
406 449
406 606
406 637
406 667
406 715
407 456
407 486
407 535
407 544
407 572
407 622
407 941
408 414
408 422
408 609
408 659
408 723
408 726
408 746
408 870
408 913
408 941
408 967
408 970
409 414
409 456
409 502
409 882
409 889
409 978
409 986
410 446
410 517
410 581
410 600
410 698
410 708
410 737
410 836
410 887
410 915
411 436
411 581
411 631
411 643
411 670
411 683
411 697
411 701
411 807
411 843
411 930
411 948
412 553
412 583
412 588
412 622
412 654
412 695
412 769
412 795
412 857
412 900
412 924
412 980
413 509
413 523
413 715
413 724
413 732
413 806
413 845
413 886
413 899
414 447
414 480
414 588
414 663
414 731
414 811
414 829
414 863
414 913
414 971
414 987
415 473
415 485
415 509
415 538
415 592
415 681
415 737
415 770
415 793
415 979
415 984
416 469
416 519
416 521
416 530
416 542
416 753
416 835
417 503
417 531
417 649
417 740
417 742
417 860
417 910
417 955
417 976
418 456
418 600
418 626
418 695
418 760
418 783
418 867
418 934
418 954
418 991
419 460
419 478
419 559
419 765
419 790
419 808
419 820
419 909
419 965
419 974
419 988
420 428
420 454
420 460
420 471
420 592
420 593
420 612
420 677
420 909
420 941
421 423
421 534
421 597
421 682
421 717
421 910
422 443
422 504
422 565
422 642
422 660
422 695
422 731
422 827
423 428
423 521
423 606
423 631
423 640
423 656
423 662
423 750
423 754
423 786
423 799
423 802
423 952
423 968
424 435
424 508
424 513
424 561
424 616
424 647
424 682
424 687
424 689
424 733
424 735
424 872
424 916
424 932
425 457
425 810
425 817
425 840
426 444
426 496
426 651
426 732
426 738
426 890
426 930
426 943
427 480
427 536
427 590
427 760
427 834
428 462
428 565
428 598
428 611
428 665
428 715
428 716
428 720
428 778
428 813
428 912
429 441
429 489
429 532
429 737
429 886
429 965
430 489
430 684
430 773
430 781
430 835
430 844
430 903
431 470
431 491
431 546
431 574
431 638
431 712
431 737
431 741
431 838
431 875
431 937
431 953
431 971
432 478
432 513
432 520
432 539
432 569
432 615
432 618
432 622
432 625
432 680
432 784
432 801
432 804
432 806
432 824
432 876
432 928
433 438
433 561
433 575
433 584
433 648
433 661
433 689
433 710
433 775
433 780
433 841
433 851
433 885
433 913
434 439
434 449
434 552
434 651
434 677
434 749
434 833
434 978
434 991
435 441
435 526
435 553
435 560
435 595
435 642
435 726
435 791
435 822
435 868
435 875
436 448
436 498
436 591
436 617
436 631
436 712
436 767
436 790
436 820
436 833
436 940
436 945
436 947
436 955
436 973
437 468
437 498
437 516
437 518
437 607
437 642
437 648
437 660
437 839
437 867
437 919
437 924
437 979
437 993
437 999
438 441
438 554
438 558
438 562
438 582
438 680
438 700
438 718
438 799
438 862
438 905
438 938
438 946
438 971
439 449
439 578
439 596
439 598
439 644
439 667
439 723
439 818
439 829
439 875
439 876
439 897
439 907
439 968
439 992
440 505
440 525
440 528
440 529
440 530
440 561
440 563
440 578
440 586
440 706
440 750
440 796
440 863
440 892
441 453
441 541
441 548
441 667
441 730
441 795
441 834
441 874
441 899
441 934
441 959
441 977
441 986
442 467
442 519
442 972
443 473
443 484
443 506
443 701
443 763
443 815
443 879
443 903
443 962
444 489
444 501
444 527
444 537
444 556
444 606
444 648
444 658
444 683
444 699
444 780
445 492
445 592
445 655
445 714
445 717
445 842
445 985
446 447
446 479
446 652
446 682
446 771
446 874
446 952
446 954
446 977
447 481
447 511
447 534
447 568
447 612
447 619
447 635
447 665
447 693
447 712
447 816
447 864
447 876
447 883
447 890
447 922
447 963
447 993
448 502
448 525
448 529
448 820
448 831
448 854
448 872
448 900
448 947
449 483
449 508
449 552
449 570
449 606
449 728
449 747
449 748
449 884
449 913
450 461
450 518
450 522
450 540
450 611
450 651
450 822
450 834
450 937
450 945
451 473
451 544
451 629
451 649
451 656
451 664
451 890
451 906
451 911
451 923
451 942
451 951
451 989
451 992
452 547
452 573
452 646
452 818
453 473
453 529
453 573
453 845
453 852
453 895
453 896
453 934
453 966
453 978
454 498
454 524
454 653
454 674
454 721
454 763
454 823
454 926
454 976
455 468
455 516
455 571
455 642
455 655
455 728
455 763
455 775
455 832
455 836
455 990
456 546
456 575
456 581
456 611
456 724
456 732
456 762
456 825
456 840
456 956
456 974
457 530
457 559
457 619
457 820
457 931
457 984
458 460
458 503
458 543
458 633
458 684
458 740
458 750
458 795
458 800
458 817
458 839
458 852
458 920
458 923
458 988
458 999
459 554
459 644
459 678
459 722
459 771
459 802
459 822
459 839
459 986
460 482
460 621
460 668
460 763
460 819
460 923
460 962
461 532
461 551
461 662
461 700
461 736
461 760
461 778
461 802
461 892
461 956
462 540
462 601
462 612
462 690
462 764
462 820
462 827
463 504
463 845
463 864
464 492
464 551
464 639
464 778
464 809
464 838
464 901
465 576
465 587
465 677
465 794
465 902
465 913
465 975
466 478
466 492
466 499
466 517
466 591
466 653
466 683
466 814
466 879
466 903
467 498
467 520
467 545
467 558
467 624
467 628
467 655
467 684
467 711
467 713
467 849
467 865
467 955
467 968
467 976
467 991
468 538
468 584
468 755
468 777
468 778
468 818
468 959
469 537
469 543
469 621
469 695
469 796
469 961
470 516
470 730
470 788
470 810
470 907
470 926
471 481
471 552
471 581
471 696
471 753
471 853
471 901
472 723
472 791
472 932
472 944
473 598
473 600
473 612
473 652
473 659
473 693
473 702
473 732
473 736
473 762
473 858
473 861
473 875
473 904
473 916
473 926
473 952
473 981
474 511
474 682
474 724
474 731
474 740
474 838
474 844
474 862
474 974
474 998
475 507
475 544
475 598
475 635
475 661
475 673
475 737
475 930
475 936
475 943
476 572
476 585
476 598
476 616
476 681
476 803
476 969
476 975
476 983
476 984
477 491
477 632
477 633
477 682
477 752
477 879
477 884
477 887
478 703
478 715
478 777
478 842
479 517
479 624
479 712
479 792
479 799
479 824
479 906
479 943
479 995
480 505
480 646
480 682
480 695
480 698
480 774
480 847
480 942
481 484
481 519
481 545
481 603
481 646
481 665
481 686
481 690
481 843
481 858
481 902
481 919
481 933
482 533
482 612
482 698
482 725
482 895
483 492
483 549
483 590
483 697
483 730
483 818
483 856
483 870
483 895
483 973
483 975
484 699
484 821
484 843
484 983
485 495
485 573
485 627
485 713
485 795
485 806
485 847
485 891
485 976
486 512
486 571
486 611
486 612
486 681
486 736
486 758
486 786
486 919
486 944
486 973
487 490
487 569
487 587
487 644
487 716
487 797
487 883
487 936
487 966
487 967
487 997
488 563
488 615
488 804
488 816
488 868
488 869
488 892
489 580
489 738
489 793
489 945
490 577
490 612
490 631
490 646
490 665
490 713
490 799
490 854
490 911
490 943
490 969
491 557
491 692
491 694
491 771
491 804
491 933
491 975
492 510
492 533
492 554
492 584
492 595
492 650
492 683
492 817
492 855
492 891
492 959
493 508
493 549
493 550
493 632
493 663
493 725
493 950
494 522
494 530
494 613
494 813
494 905
494 912
494 927
494 944
495 498
495 565
495 701
495 719
495 724
495 775
495 905
495 955
496 557
496 604
496 689
496 714
496 768
496 876
496 969
497 518
497 624
497 690
497 716
497 721
497 787
497 803
497 857
498 540
498 541
498 716
498 799
498 810
498 865
498 900
498 989
499 523
499 560
499 624
499 632
499 703
499 711
499 828
499 870
499 905
500 521
500 625
500 736
500 820
500 836
500 845
500 857
500 996
501 531
501 560
501 713
501 743
501 753
501 816
501 835
501 839
501 857
501 972
502 506
502 522
502 715
502 828
502 930
503 567
503 575
503 595
503 597
503 653
503 696
504 555
504 651
504 694
504 975
505 664
505 745
505 783
505 825
505 972
505 976
506 521
506 522
506 562
506 574
506 686
506 775
506 832
506 934
506 977
507 528
507 575
507 585
507 649
507 654
507 795
507 811
507 892
507 896
508 805
508 856
508 934
508 949
508 995
509 570
509 574
509 653
509 755
509 776
509 786
509 787
509 789
509 914
509 958
510 530
510 569
510 726
510 875
511 643
511 748
511 751
511 764
512 589
512 634
512 688
512 710
512 751
512 772
512 775
512 795
512 802
512 808
512 901
512 940
513 545
513 582
513 594
513 615
513 644
513 819
513 890
513 901
514 546
514 654
514 701
514 719
514 755
514 782
514 783
514 785
514 811
514 818
514 860
514 883
514 972
514 982
514 992
515 589
515 643
515 694
515 699
515 723
515 742
515 743
515 752
515 773
515 854
515 891
515 900
515 931
515 938
515 942
515 956
516 550
516 606
516 656
516 662
516 677
516 704
516 725
516 754
516 768
516 792
516 830
516 842
516 847
516 989
517 529
517 685
517 727
517 781
517 865
517 897
517 994
518 528
518 579
518 599
518 634
518 649
518 677
518 684
518 696
518 703
518 725
518 777
518 793
518 840
518 842
518 848
518 978
519 725
519 779
519 809
519 940
520 569
520 643
520 684
520 766
520 768
520 910
520 935
520 960
521 675
521 731
521 748
521 750
521 759
521 843
521 880
521 881
521 912
522 585
522 608
522 675
522 709
522 781
522 803
522 852
522 886
522 902
523 555
523 637
523 802
523 830
523 835
523 917
523 944
524 571
524 678
524 847
524 859
524 927
524 988
525 537
525 583
525 654
525 897
525 909
526 530
526 541
526 574
526 576
526 614
526 661
526 721
526 841
526 892
526 953
526 967
527 578
527 582
527 631
527 645
527 676
527 798
527 801
527 806
527 832
527 887
527 962
527 982
527 995
528 537
528 723
528 752
528 773
528 833
528 934
528 941
529 557
529 748
529 750
529 880
529 996
530 570
530 608
530 629
530 663
530 716
530 727
530 782
530 870
530 947
531 598
531 619
531 671
531 739
531 802
531 908
532 546
532 600
532 610
532 726
532 762
532 773
532 828
532 902
532 950
533 565
533 593
533 694
533 770
533 838
533 924
534 593
534 769
534 839
534 841
534 901
534 920
534 957
534 982
534 990
535 549
535 571
535 609
535 676
535 708
535 738
535 793
535 854
535 952
536 584
536 626
536 728
536 732
536 760
536 779
536 816
536 837
536 870
536 955
536 985
537 577
537 803
537 821
537 919
537 946
537 955
538 547
538 584
538 603
538 805
538 863
538 907
538 950
538 983
539 554
539 558
539 609
539 620
539 634
539 665
539 685
539 782
539 824
539 833
539 903
539 954
539 965
539 968
540 584
540 625
540 651
540 699
540 753
540 773
540 787
540 848
540 869
540 983
540 987
540 989
541 544
541 546
541 563
541 592
541 633
541 713
541 915
541 984
542 652
542 795
542 819
542 851
542 897
542 932
542 934
542 953
543 544
543 561
543 571
543 585
543 595
543 654
543 763
543 801
543 948
543 949
543 998
544 601
544 715
544 771
544 808
544 843
544 932
545 559
545 565
545 636
545 643
545 657
545 662
545 674
545 688
545 746
545 764
545 772
545 912
545 972
546 557
546 588
546 595
546 616
546 633
546 643
546 652
546 844
546 970
547 548
547 561
547 633
547 736
547 754
547 785
547 788
547 814
547 873
547 883
548 598
548 720
548 725
548 762
548 808
548 827
548 955
548 996
549 553
549 555
549 733
549 734
549 749
549 772
549 798
549 921
549 926
549 982
550 555
550 609
550 688
550 791
550 871
550 892
550 928
550 940
550 988
550 993
551 656
551 670
551 794
551 805
551 817
551 822
551 864
551 872
551 884
551 915
551 920
551 925
551 937
551 940
551 950
551 955
551 976
551 997
552 556
552 583
552 594
552 608
552 693
552 699
552 838
552 979
553 590
553 598
553 621
553 629
553 633
553 731
553 764
553 862
553 905
553 935
554 616
554 690
554 705
554 723
554 843
554 905
554 974
555 606
555 702
555 710
555 887
555 891
555 918
555 967
555 996
556 648
556 717
556 894
556 941
556 960
557 564
557 565
557 604
557 640
557 771
557 779
557 810
557 857
557 868
557 885
557 895
557 927
557 983
557 987
558 575
558 657
558 747
558 758
558 800
558 810
558 822
558 868
558 910
558 911
558 965
558 997
559 563
559 588
559 647
559 780
559 831
560 603
560 696
560 706
560 789
560 800
560 802
560 827
560 907
560 958
560 963
561 617
561 638
561 693
561 739
561 819
561 820
561 821
561 844
561 849
561 979
562 678
562 681
562 693
562 845
562 988
563 587
563 757
563 815
563 843
563 888
563 935
563 960
564 607
564 640
564 648
564 698
564 700
564 704
564 749
564 862
564 864
564 910
564 992
565 578
565 634
565 774
565 831
565 925
565 966
565 987
566 569
566 572
566 582
566 748
566 835
566 871
566 945
566 951
566 959
567 568
567 577
567 579
567 613
567 635
567 682
567 794
567 806
567 821
567 993
568 631
568 651
568 690
568 693
568 710
568 729
568 786
568 831
568 853
568 878
568 907
568 975
568 976
568 982
568 989
569 583
569 597
569 634
569 651
569 667
569 849
569 881
570 593
570 661
570 662
570 737
570 749
570 767
570 964
570 971
571 611
571 639
571 681
571 696
571 743
571 798
571 808
571 915
571 998
572 668
572 710
572 779
572 863
572 924
572 927
572 939
572 994
573 624
573 722
573 985
574 604
574 608
574 616
574 868
575 605
575 621
575 632
575 671
575 742
575 808
575 841
575 849
575 871
575 996
576 623
576 654
576 773
576 797
576 884
577 600
577 621
577 703
577 725
577 777
577 798
577 847
577 932
577 974
577 991
578 586
578 651
578 657
578 713
578 760
578 800
578 846
578 881
578 892
578 933
578 968
578 973
579 621
579 629
579 767
579 807
579 812
579 828
579 913
580 631
580 689
580 709
580 749
580 790
580 799
580 840
580 928
580 993
581 605
581 670
581 818
581 830
581 981
582 615
582 633
582 636
582 689
582 745
582 796
582 982
582 999
583 692
583 735
583 759
583 768
583 798
583 821
583 846
583 937
583 942
584 615
584 669
584 736
584 839
584 889
584 951
584 965
585 703
585 764
585 827
586 613
586 644
586 660
586 690
586 825
586 865
586 929
586 956
586 978
587 699
587 783
587 838
587 849
587 894
587 898
587 908
587 910
587 913
587 940
587 968
587 982
588 676
588 861
588 917
588 922
589 618
589 832
589 881
589 965
590 628
590 732
590 746
590 785
590 832
590 847
590 860
590 886
590 952
590 978
590 998
591 603
591 635
591 676
591 680
591 690
591 746
591 800
591 813
591 981
591 997
592 601
592 628
592 688
592 731
592 751
592 796
592 813
592 958
593 622
593 678
593 775
593 819
593 886
593 896
594 639
594 703
594 706
594 716
594 721
594 801
594 843
594 900
594 908
595 605
595 676
595 699
595 707
595 797
595 801
595 856
595 875
595 880
595 991
596 664
596 685
596 815
596 851
596 941
596 963
597 632
597 633
597 707
597 814
597 844
597 865
597 893
597 903
597 911
598 699
598 833
598 839
598 884
598 985
599 630
599 698
599 748
599 912
599 950
599 996
600 664
600 734
600 772
600 776
600 823
600 836
600 914
600 982
601 718
601 823
601 923
602 682
602 830
603 751
603 775
603 916
604 638
604 688
604 746
604 748
604 765
604 780
604 793
604 891
604 958
604 990
605 640
605 774
605 799
605 822
605 834
605 881
605 897
605 908
605 917
605 925
605 954
605 966
605 984
606 612
606 628
606 636
606 744
606 748
606 889
606 964
607 656
607 741
607 824
607 859
607 976
608 726
608 988
609 663
609 683
609 719
609 774
609 799
609 856
609 897
609 948
609 963
610 698
610 710
610 725
610 798
610 806
610 994
611 678
611 733
611 928
612 721
612 731
612 887
612 888
612 976
613 625
613 635
613 737
613 756
613 805
613 871
613 885
613 905
613 964
614 636
614 644
614 730
614 731
614 747
614 757
615 705
615 708
615 716
615 722
615 750
615 872
615 921
616 626
616 655
616 705
617 665
617 719
617 729
617 761
617 856
617 888
617 903
617 967
618 779
618 946
618 982
619 651
619 724
619 788
619 841
619 846
620 637
620 646
620 670
620 729
620 862
620 873
620 893
620 971
620 977
620 995
621 632
621 820
621 839
621 843
621 902
621 905
621 920
621 968
621 985
622 662
622 732
622 762
622 815
622 991
623 637
623 733
623 762
623 775
623 797
623 848
623 851
623 853
623 909
623 979
624 649
624 679
625 656
625 692
625 737
625 747
625 765
625 852
625 941
625 943
625 960
625 961
625 990
625 992
626 641
626 711
626 790
626 808
626 904
626 964
627 680
627 687
627 825
627 903
627 969
628 653
628 678
628 682
628 784
628 844
628 895
628 900
628 923
628 957
628 971
629 701
629 756
629 782
629 798
629 912
629 963
630 660
630 788
630 839
630 855
630 926
630 954
630 962
630 963
631 666
631 774
631 793
631 834
631 902
631 933
631 951
632 795
632 901
632 915
632 934
632 971
633 726
633 986
633 998
634 740
634 797
634 874
634 908
634 909
634 960
634 974
634 992
635 679
635 697
635 707
635 783
635 819
635 916
635 935
636 682
636 712
636 822
636 880
637 740
637 760
637 772
637 789
637 819
637 872
637 944
637 989
638 677
638 680
638 747
638 782
638 798
638 843
638 860
638 928
639 693
639 753
639 785
639 948
640 677
640 864
640 872
640 926
640 937
640 973
641 649
641 659
641 735
641 758
641 820
641 934
641 993
642 692
642 693
642 726
642 770
642 785
642 826
643 648
643 679
643 730
643 738
643 882
644 653
644 680
644 687
644 689
644 697
644 704
644 732
644 797
644 807
644 813
644 867
644 870
644 897
644 914
645 656
645 661
645 697
645 698
645 750
645 767
645 806
645 840
645 879
645 928
645 930
645 970
645 984
646 759
646 778
646 794
646 820
646 873
647 650
647 683
647 727
647 835
647 856
647 870
647 926
647 953
647 998
648 671
648 784
648 883
648 925
648 933
649 704
649 736
649 776
649 804
649 854
649 881
649 907
650 767
650 768
650 841
650 846
650 930
650 935
651 684
651 691
651 742
651 794
651 922
651 948
651 970
651 972
652 766
652 850
652 908
652 935
652 981
653 688
653 699
653 804
653 816
653 826
653 841
653 845
653 923
653 950
653 962
654 753
654 805
654 812
654 953
654 998
655 658
655 701
655 708
655 761
655 854
655 922
655 956
656 665
656 771
656 788
656 805
656 821
656 916
656 929
656 970
657 717
657 769
657 772
657 789
657 790
657 825
657 946
658 728
658 736
658 834
658 847
658 967
659 661
659 777
659 800
659 820
659 834
659 847
660 752
660 827
660 874
660 892
660 946
661 797
661 800
661 804
661 835
661 889
661 891
661 897
661 949
661 970
662 719
662 792
662 986
663 669
663 785
663 819
663 970
664 734
664 747
664 934
664 963
664 975
664 978
664 985
665 676
665 687
665 703
665 863
665 910
665 913
665 937
665 984
666 718
666 756
666 819
666 909
666 920
666 921
666 966
667 680
667 773
667 794
667 818
667 835
667 884
667 903
667 978
668 681
668 764
668 802
668 813
668 850
668 864
668 917
668 967
668 990
669 699
669 704
669 854
670 733
670 805
670 806
670 857
670 866
671 733
671 775
671 871
671 960
672 679
672 688
672 743
672 785
672 792
672 892
672 909
672 939
672 943
672 958
673 731
673 735
673 805
673 820
673 821
673 842
673 871
673 873
673 930
673 997
674 675
674 705
674 843
674 849
674 853
674 874
674 908
674 937
674 942
674 970
675 685
675 768
675 834
675 837
675 902
675 916
676 693
676 800
676 841
676 869
676 889
676 898
676 958
677 766
677 893
677 935
678 757
678 858
678 988
678 994
679 730
679 769
679 816
679 826
679 931
680 726
680 731
680 916
680 977
681 687
681 729
681 734
681 739
681 765
681 792
681 821
681 997
682 700
682 718
682 723
682 743
682 792
682 802
682 809
682 820
682 843
682 847
682 904
682 989
683 864
683 900
683 937
683 955
684 723
684 783
684 799
684 813
684 863
685 766
685 926
685 947
685 965
685 966
686 687
686 740
686 760
686 762
686 891
686 926
686 928
686 945
687 746
687 865
687 904
687 930
687 967
688 740
688 784
688 929
689 697
689 728
689 761
689 780
689 782
689 876
689 920
689 966
690 740
690 821
690 901
690 903
690 932
690 938
691 704
691 711
691 810
691 867
691 868
691 885
691 902
691 927
691 946
691 958
692 784
692 872
693 704
693 851
694 714
694 717
694 759
694 765
694 779
694 817
694 851
694 874
694 907
694 951
694 981
694 985
695 735
695 791
695 855
695 896
695 943
695 963
696 707
696 788
696 860
696 896
696 910
696 920
696 938
696 960
696 979
697 814
697 837
697 854
698 728
698 813
698 828
698 847
698 886
698 909
698 939
699 766
699 908
699 912
699 962
700 761
700 845
700 907
700 931
700 939
701 921
702 777
702 855
702 941
703 723
703 812
703 824
703 860
703 869
703 870
703 941
703 985
704 712
704 715
704 751
704 753
704 792
704 858
704 869
704 885
704 940
705 768
705 852
706 752
707 715
707 718
707 738
707 992
708 762
708 846
708 873
708 880
708 887
708 898
708 900
708 935
709 732
709 743
709 772
709 969
710 727
710 749
710 844
710 898
710 967
710 974
710 988
711 718
711 719
711 762
711 769
711 842
711 848
711 994
712 762
712 778
712 883
712 900
712 904
712 936
712 999
713 746
713 853
713 912
713 983
714 868
714 918
716 742
716 789
716 990
717 789
717 792
717 887
717 933
717 984
718 732
718 747
718 795
718 820
718 840
718 896
718 981
718 996
719 764
719 815
719 953
719 964
719 970
720 900
720 945
720 967
721 822
721 849
722 725
724 767
724 780
724 826
724 830
724 839
724 956
724 971
725 788
725 897
725 942
726 743
726 809
726 815
726 915
726 961
727 821
727 904
727 910
727 922
728 760
728 823
728 893
728 948
729 735
730 740
730 743
730 762
730 821
730 887
730 897
730 906
730 949
730 967
731 800
731 820
731 893
731 937
731 957
732 754
732 802
732 872
732 934
732 995
732 996
733 986
734 780
734 809
734 952
734 996
735 838
735 839
735 935
735 970
736 780
736 832
736 835
736 857
736 888
736 959
737 742
737 773
737 840
737 855
737 872
737 880
737 893
737 960
738 849
738 872
738 885
738 894
738 947
739 745
739 964
739 973
739 985
740 752
740 761
740 792
740 805
740 818
740 886
740 901
740 908
740 919
740 961
740 967
741 835
741 855
741 875
741 895
741 976
741 997
742 744
742 747
742 772
742 797
742 899
742 900
742 913
742 922
743 849
743 926
744 751
744 763
744 831
744 841
744 851
744 932
745 901
745 902
745 957
745 970
746 767
746 787
746 839
746 970
747 762
747 863
747 966
748 816
748 882
749 765
749 872
749 896
749 901
749 968
749 971
750 880
750 925
751 760
751 923
751 960
752 771
752 824
752 845
752 846
752 862
752 876
752 956
753 806
753 843
753 944
754 876
754 885
754 913
754 952
755 761
755 763
755 814
755 962
755 972
756 810
756 982
756 996
757 758
757 764
757 885
757 979
758 829
758 928
758 968
758 976
759 777
759 836
759 878
759 967
760 799
760 802
760 842
760 845
760 876
760 899
760 934
761 778
761 932
761 948
762 779
762 788
762 803
763 782
763 822
763 854
763 867
763 970
763 998
764 766
764 847
764 903
764 937
765 832
765 890
765 935
765 959
765 967
765 981
766 797
766 828
766 888
766 904
766 960
766 980
766 997
767 788
767 907
767 923
768 780
768 827
768 847
768 848
768 980
768 982
769 834
769 865
769 895
769 943
770 839
770 842
770 901
770 907
770 909
770 961
770 968
770 981
771 776
771 823
771 833
771 871
771 970
773 815
773 837
773 841
774 816
774 980
775 942
775 952
776 926
776 941
777 800
777 834
777 863
777 983
777 987
777 989
777 992
778 818
778 862
778 938
778 960
778 963
778 992
779 796
779 973
780 827
780 828
780 860
780 898
780 914
780 926
781 852
782 825
782 979
783 786
784 835
784 874
784 920
785 975
785 993
786 828
786 897
786 966
786 976
787 826
787 853
787 972
788 968
789 851
789 853
789 878
789 889
790 791
790 819
790 850
790 900
790 904
790 913
790 927
790 964
791 817
791 848
791 941
791 962
792 878
792 890
792 926
792 928
793 859
793 908
793 918
793 942
794 838
794 849
794 877
794 879
794 901
794 922
794 959
794 996
795 834
795 867
796 862
796 892
797 802
797 967
798 805
798 814
798 848
798 854
798 917
798 966
798 970
799 868
799 977
800 866
800 877
800 928
800 935
801 846
801 876
801 911
801 924
801 941
802 807
802 821
802 825
802 826
802 836
802 840
802 946
802 993
803 936
803 947
803 960
804 867
804 923
804 984
804 987
805 877
805 889
805 891
805 931
805 941
805 964
806 864
807 903
808 832
808 870
808 891
808 939
810 822
810 911
810 971
810 998
811 860
812 891
812 904
812 952
812 958
813 848
813 861
813 887
813 905
813 912
813 947
814 904
814 909
814 960
815 926
816 818
816 887
816 912
816 955
817 833
817 958
817 973
817 981
818 825
818 846
818 892
818 943
818 998
819 860
819 945
819 987
820 851
820 935
821 839
821 866
821 929
821 990
821 996
823 941
824 893
824 913
825 966
826 969
826 981
826 999
827 906
828 860
828 865
828 920
828 947
829 966
830 838
830 997
831 922
831 966
832 893
832 941
832 973
832 995
833 912
833 949
833 978
834 839
835 950
835 973
835 977
836 896
836 936
836 946
837 899
837 918
837 947
837 966
838 881
839 911
839 969
839 974
840 847
840 871
840 927
840 943
841 850
841 855
841 996
842 980
843 861
843 895
843 954
844 855
844 912
845 964
846 896
846 925
846 955
847 980
848 916
848 931
848 942
848 954
848 959
848 994
849 898
849 931
849 965
849 994
850 960
851 989
852 953
853 867
853 934
853 956
853 976
854 912
854 959
854 975
855 889
855 979
857 884
857 904
858 919
859 864
860 893
860 922
861 900
861 989
862 895
862 932
863 886
864 893
864 918
864 938
865 877
866 900
866 979
866 983
867 963
867 988
868 895
868 906
869 872
869 884
869 915
869 973
871 905
872 896
872 915
872 933
873 923
873 954
873 979
874 890
874 893
874 942
874 968
874 970
874 996
875 885
875 926
875 971
875 977
877 945
878 931
878 964
879 885
879 940
880 942
881 918
881 960
882 917
883 889
883 970
884 890
884 908
884 944
884 995
885 941
885 956
886 889
886 956
886 974
886 984
887 947
887 978
888 947
888 962
888 978
889 913
889 922
889 968
889 977
891 926
891 960
891 996
891 997
892 912
892 915
892 919
892 927
892 980
893 972
894 895
894 922
895 935
896 962
896 968
896 982
897 964
897 991
898 907
899 915
899 947
899 989
901 958
902 906
903 945
903 967
904 944
904 963
904 999
905 916
905 938
906 913
907 989
908 912
910 946
910 974
911 954
912 976
912 986
913 919
913 958
913 985
915 918
915 931
915 950
915 957
915 996
916 956
916 987
917 940
917 955
918 919
918 973
918 988
921 982
922 924
922 931
922 993
924 973
925 985
925 997
926 998
927 937
927 957
928 995
929 968
930 948
930 999
931 938
932 950
934 945
936 981
937 954
937 958
938 940
938 998
940 994
941 944
942 955
942 968
942 980
944 961
944 994
946 963
948 953
948 999
949 960
949 963
950 955
952 979
952 984
953 979
955 961
955 965
957 999
961 971
965 992
968 971
975 987
975 992
978 997
979 996
984 985
985 990
989 994
994 997
