0 3
0 15
0 65
0 80
0 103
0 111
0 120
0 128
0 135
0 162
0 165
0 168
0 173
0 182
0 214
0 218
0 293
0 309
0 310
0 348
1 4
1 33
1 36
1 145
1 211
1 215
1 220
1 249
1 251
1 288
1 289
1 302
1 334
2 7
2 16
2 48
2 52
2 96
2 136
2 140
2 190
2 218
2 222
2 248
2 255
2 278
2 279
2 311
2 314
2 332
2 346
2 347
3 19
3 27
3 60
3 108
3 119
3 135
3 142
3 171
3 173
3 179
3 188
3 220
3 229
3 253
3 258
3 289
3 292
3 294
3 302
3 310
3 337
3 338
4 5
4 25
4 29
4 50
4 76
4 87
4 132
4 154
4 188
4 197
4 203
4 261
4 274
5 39
5 85
5 88
5 99
5 154
5 182
5 201
5 218
5 251
5 268
5 348
6 30
6 36
6 64
6 77
6 109
6 113
6 119
6 163
6 222
6 239
6 245
6 295
6 297
6 316
6 329
6 338
7 53
7 74
7 84
7 96
7 110
7 122
7 173
7 195
7 197
7 203
7 229
7 237
7 244
7 257
7 296
7 336
8 11
8 96
8 101
8 112
8 148
8 194
8 213
8 272
8 327
8 347
9 34
9 59
9 96
9 108
9 181
9 182
9 235
9 239
9 263
9 286
9 344
9 347
10 19
10 51
10 59
10 63
10 65
10 76
10 86
10 115
10 125
10 162
10 177
10 194
10 207
10 215
10 223
10 275
10 296
10 297
10 323
10 327
10 345
11 44
11 66
11 68
11 90
11 91
11 96
11 99
11 104
11 139
11 177
11 235
11 291
11 300
11 308
11 315
12 16
12 30
12 54
12 59
12 64
12 68
12 103
12 126
12 151
12 163
12 181
12 191
12 196
12 212
12 327
12 328
13 33
13 83
13 91
13 92
13 99
13 121
13 133
13 165
13 185
13 190
13 195
13 203
13 210
13 224
13 253
13 261
13 292
13 310
14 35
14 47
14 54
14 72
14 124
14 170
14 197
14 246
14 278
14 289
14 346
15 26
15 58
15 66
15 86
15 105
15 114
15 115
15 156
15 173
15 186
15 195
15 220
15 259
15 300
15 321
15 324
15 330
15 348
16 27
16 52
16 79
16 96
16 112
16 115
16 128
16 166
16 172
16 178
16 188
16 193
16 272
16 302
16 304
16 320
16 330
16 339
16 345
17 19
17 27
17 45
17 50
17 69
17 85
17 101
17 157
17 183
17 199
17 227
17 233
17 302
17 306
17 312
17 324
17 338
18 26
18 29
18 41
18 45
18 70
18 75
18 94
18 105
18 144
18 156
18 215
18 242
18 263
18 287
18 304
18 305
18 341
19 60
19 85
19 100
19 105
19 150
19 178
19 185
19 205
19 243
19 261
19 282
19 301
19 315
19 349
20 24
20 41
20 90
20 96
20 103
20 113
20 167
20 194
20 214
20 218
20 232
20 329
20 336
21 50
21 78
21 80
21 96
21 106
21 111
21 125
21 143
21 150
21 152
21 162
21 186
21 204
21 222
21 231
21 240
21 248
21 261
21 262
21 283
21 301
21 311
21 317
21 333
22 27
22 42
22 73
22 77
22 89
22 90
22 94
22 120
22 126
22 151
22 154
22 157
22 180
22 191
22 194
22 206
22 233
22 255
22 307
22 322
22 346
23 62
23 76
23 89
23 100
23 101
23 108
23 133
23 134
23 144
23 147
23 175
23 176
23 200
23 255
23 277
23 298
23 320
24 27
24 31
24 42
24 51
24 82
24 84
24 103
24 157
24 163
24 193
24 196
24 223
24 250
24 294
24 318
24 345
25 68
25 70
25 89
25 114
25 122
25 141
25 150
25 176
25 201
25 245
25 248
25 254
25 269
25 275
25 279
25 311
26 80
26 101
26 118
26 127
26 166
26 177
26 196
26 206
26 207
26 234
26 236
26 246
26 255
26 258
26 271
26 279
26 309
26 311
26 320
26 327
26 328
26 334
26 346
26 348
26 349
27 38
27 63
27 78
27 128
27 166
27 190
27 192
27 235
27 240
27 250
27 253
27 258
27 292
28 37
28 67
28 75
28 113
28 122
28 125
28 133
28 139
28 182
28 193
28 195
28 208
28 227
28 230
28 256
28 264
28 274
28 289
28 290
28 317
28 333
28 335
28 336
28 338
29 34
29 63
29 80
29 102
29 127
29 152
29 232
29 258
29 290
29 309
29 310
29 315
29 323
29 327
29 349
30 44
30 50
30 88
30 102
30 127
30 174
30 259
30 263
30 303
30 322
30 324
30 328
30 336
31 51
31 52
31 79
31 131
31 144
31 157
31 195
31 207
31 222
31 290
31 322
31 327
32 55
32 61
32 74
32 82
32 84
32 100
32 108
32 145
32 157
32 189
32 205
32 237
32 239
32 255
32 280
32 281
32 284
33 39
33 40
33 48
33 80
33 104
33 106
33 127
33 130
33 133
33 145
33 147
33 162
33 170
33 173
33 216
33 217
33 253
33 276
33 279
33 307
33 312
33 315
34 45
34 50
34 71
34 73
34 74
34 87
34 102
34 110
34 136
34 148
34 165
34 190
34 221
34 294
34 304
34 331
35 36
35 45
35 62
35 76
35 107
35 134
35 164
35 203
35 206
35 227
35 264
35 268
35 269
35 274
35 312
35 341
35 345
36 39
36 59
36 63
36 79
36 86
36 98
36 116
36 134
36 145
36 169
36 186
36 212
36 253
36 261
36 291
36 318
37 48
37 72
37 78
37 81
37 85
37 99
37 101
37 133
37 140
37 143
37 227
37 246
37 320
37 338
38 54
38 80
38 81
38 107
38 110
38 112
38 152
38 159
38 193
38 200
38 202
38 215
38 218
38 226
38 230
38 232
38 233
38 243
38 300
38 312
38 327
38 329
39 57
39 90
39 101
39 108
39 116
39 130
39 135
39 170
39 189
39 202
39 204
39 206
39 224
39 230
39 251
39 298
39 308
39 325
39 343
40 44
40 70
40 76
40 107
40 167
40 172
40 193
40 194
40 205
40 215
40 240
40 251
40 259
40 280
40 300
40 304
40 315
40 321
41 88
41 96
41 121
41 135
41 149
41 163
41 177
41 195
41 237
41 248
41 304
41 316
41 337
42 51
42 93
42 96
42 125
42 135
42 151
42 155
42 189
42 256
42 270
42 299
42 316
42 328
43 55
43 176
43 183
43 186
43 198
43 213
43 270
43 296
43 297
44 53
44 71
44 104
44 150
44 158
44 166
44 177
44 192
44 199
44 225
44 289
44 313
44 335
45 49
45 66
45 91
45 120
45 140
45 146
45 153
45 171
45 238
45 242
45 282
45 284
45 296
45 318
45 324
45 334
46 90
46 100
46 111
46 126
46 131
46 198
46 212
46 217
46 222
46 250
46 255
46 278
46 320
46 322
47 99
47 126
47 169
47 174
47 175
47 192
47 197
47 206
47 261
47 267
47 279
47 280
47 336
47 344
48 56
48 86
48 99
48 117
48 141
48 172
48 183
48 209
48 229
48 241
48 265
48 277
48 283
48 293
48 308
48 325
48 326
48 339
48 344
49 54
49 76
49 87
49 112
49 120
49 128
49 139
49 148
49 161
49 168
49 253
49 256
49 275
49 283
49 319
50 54
50 73
50 91
50 124
50 134
50 143
50 161
50 201
50 207
50 215
50 230
50 232
50 233
50 250
50 257
50 269
50 271
50 316
50 339
51 90
51 97
51 119
51 148
51 154
51 191
51 215
51 236
51 256
51 268
51 286
51 289
51 306
51 337
51 343
52 66
52 109
52 149
52 159
52 167
52 210
52 218
52 227
52 244
52 253
52 291
52 292
52 332
53 66
53 92
53 138
53 149
53 150
53 160
53 175
53 204
53 213
53 220
53 264
53 277
53 326
53 338
53 340
54 65
54 79
54 81
54 92
54 158
54 164
54 174
54 233
54 260
54 283
54 294
54 335
55 59
55 64
55 72
55 92
55 159
55 205
55 219
55 259
55 279
56 121
56 132
56 271
56 284
56 294
56 310
56 325
56 348
57 85
57 122
57 131
57 161
57 162
57 166
57 180
57 181
57 182
57 196
57 209
57 237
57 258
57 263
57 312
57 338
57 346
58 70
58 118
58 139
58 145
58 184
58 197
58 207
58 220
58 221
58 225
58 259
58 274
58 314
58 323
58 328
59 61
59 102
59 106
59 134
59 198
59 224
59 231
59 232
59 314
59 343
60 64
60 80
60 166
60 178
60 203
60 231
60 234
60 246
60 269
60 334
60 342
61 63
61 70
61 72
61 77
61 89
61 121
61 156
61 159
61 176
61 180
61 194
61 226
61 230
61 241
61 242
61 260
61 271
61 277
61 292
61 300
62 69
62 81
62 126
62 141
62 162
62 165
62 208
62 229
62 252
62 274
62 276
62 292
62 313
62 326
62 347
63 99
63 141
63 152
63 153
63 167
63 177
63 180
63 212
63 219
63 308
63 317
63 325
64 83
64 110
64 142
64 145
64 146
64 203
64 273
64 314
64 319
64 325
64 340
65 86
65 88
65 98
65 110
65 133
65 142
65 161
65 184
65 190
65 191
65 192
65 197
65 212
65 224
65 226
65 229
65 230
65 292
65 294
66 140
66 172
66 191
66 208
66 223
66 272
66 284
66 295
66 308
66 314
66 329
66 332
66 334
66 342
66 347
67 104
67 108
67 121
67 156
67 163
67 179
67 215
67 235
67 250
67 253
67 259
67 261
67 269
67 280
67 284
67 291
67 293
67 318
67 326
67 335
67 346
68 83
68 93
68 102
68 122
68 149
68 154
68 155
68 164
68 165
68 171
68 179
68 186
68 194
68 199
68 200
68 240
68 251
68 288
68 325
68 336
68 342
69 91
69 110
69 143
69 165
69 168
69 181
69 185
69 210
69 260
69 273
69 276
69 290
70 94
70 109
70 116
70 134
70 146
70 151
70 168
70 172
70 202
70 281
70 319
70 326
70 327
70 335
70 342
71 106
71 117
71 153
71 157
71 168
71 169
71 182
71 188
71 223
71 236
71 248
71 313
71 332
71 335
71 344
72 73
72 75
72 90
72 94
72 104
72 113
72 148
72 158
72 170
72 213
72 223
72 270
72 276
72 295
72 297
72 307
72 310
72 319
72 334
73 90
73 142
73 159
73 165
73 170
73 211
73 212
73 247
73 253
73 257
73 276
73 306
73 337
73 338
74 99
74 101
74 138
74 159
74 205
74 212
74 242
74 252
74 265
74 301
74 323
75 84
75 118
75 126
75 147
75 151
75 161
75 178
75 189
75 223
75 269
75 293
75 300
75 346
76 95
76 104
76 107
76 143
76 146
76 153
76 174
76 175
76 188
76 192
76 222
76 278
76 287
76 291
76 304
76 310
76 311
76 314
77 94
77 108
77 131
77 216
77 250
77 252
77 257
77 261
77 270
77 292
77 313
77 347
78 80
78 92
78 95
78 105
78 112
78 201
78 208
78 250
78 254
78 269
79 117
79 145
79 159
79 165
79 174
79 188
79 200
79 226
79 239
79 310
79 348
80 111
80 132
80 144
80 146
80 172
80 185
80 195
80 206
80 253
80 276
80 308
81 99
81 112
81 135
81 162
81 172
81 214
81 217
81 234
81 276
81 329
81 339
82 93
82 102
82 130
82 145
82 154
82 167
82 175
82 193
82 201
82 209
82 210
82 222
82 273
82 282
82 306
82 313
83 118
83 121
83 122
83 153
83 204
83 208
83 231
83 306
83 324
83 326
84 107
84 109
84 138
84 173
84 230
84 263
84 302
84 316
84 331
85 98
85 121
85 129
85 141
85 148
85 155
85 162
85 169
85 249
85 257
85 258
85 288
85 308
85 334
86 88
86 101
86 140
86 161
86 197
86 223
86 253
86 263
86 269
86 287
86 296
87 106
87 140
87 164
87 221
87 239
87 258
87 260
87 279
87 306
87 307
87 308
87 320
87 332
87 336
87 338
87 347
88 98
88 111
88 117
88 146
88 167
88 207
88 222
88 238
88 269
88 281
88 333
89 140
89 186
89 224
89 228
89 254
89 269
89 273
89 284
89 308
89 344
90 126
90 129
90 194
90 207
90 221
90 229
90 255
90 282
90 288
90 290
90 295
90 301
90 330
90 339
91 93
91 95
91 107
91 137
91 167
91 176
91 187
91 190
91 194
91 215
91 234
91 267
91 287
91 297
91 346
92 110
92 135
92 136
92 172
92 179
92 180
92 187
92 219
92 229
92 281
93 101
93 160
93 165
93 175
93 202
93 216
93 221
93 224
93 228
93 237
93 257
93 290
93 292
93 294
93 320
93 323
94 111
94 173
94 202
94 215
94 218
94 234
94 268
94 295
94 343
95 116
95 118
95 136
95 184
95 187
95 209
95 220
95 229
95 231
95 232
95 239
95 241
95 272
95 326
95 336
96 110
96 176
96 185
96 206
96 226
96 244
96 247
96 288
96 312
96 323
96 326
96 338
96 340
97 105
97 113
97 142
97 156
97 165
97 208
97 211
97 213
97 266
97 276
97 306
98 115
98 119
98 124
98 128
98 160
98 171
98 176
98 195
98 270
98 279
98 286
98 294
98 301
98 305
98 320
98 323
99 113
99 130
99 137
99 198
99 216
99 219
99 244
99 292
99 303
99 312
99 313
99 324
100 114
100 138
100 140
100 164
100 212
100 225
100 260
100 268
100 283
100 302
100 312
100 321
101 122
101 211
101 218
101 219
101 254
101 255
101 267
101 274
101 314
101 336
102 107
102 124
102 131
102 186
102 210
102 216
102 252
102 253
102 273
102 291
102 336
103 120
103 133
103 145
103 155
103 165
103 176
103 183
103 211
103 214
103 219
103 230
103 290
103 300
103 306
103 318
103 320
103 333
103 344
103 348
104 111
104 121
104 137
104 176
104 201
104 244
104 251
104 293
104 310
104 320
105 141
105 145
105 151
105 211
105 230
105 246
105 255
105 301
105 302
105 317
106 164
106 165
106 200
106 259
106 279
106 280
106 291
106 328
106 337
106 342
106 345
107 114
107 122
107 132
107 150
107 151
107 155
107 166
107 168
107 198
107 236
107 295
107 300
107 306
107 319
108 146
108 147
108 151
108 226
108 238
108 297
108 316
108 329
108 347
109 110
109 175
109 190
109 227
109 238
109 283
109 287
109 294
109 314
109 316
109 346
110 112
110 134
110 167
110 168
110 188
110 239
110 247
110 254
110 276
110 287
110 317
110 330
110 336
111 124
111 128
111 136
111 160
111 169
111 204
111 211
111 253
111 258
111 264
111 278
111 349
112 120
112 130
112 144
112 158
112 194
112 202
112 208
112 210
112 219
112 313
112 334
112 340
112 348
113 116
113 121
113 132
113 148
113 160
113 161
113 174
113 188
113 198
113 214
113 230
113 243
113 257
113 262
113 265
113 287
113 289
113 309
113 331
114 121
114 140
114 146
114 164
114 203
114 215
114 220
114 233
114 237
114 254
114 262
114 265
114 273
114 310
114 328
114 332
114 337
114 341
115 125
115 136
115 213
115 214
115 222
115 225
115 259
115 268
115 279
115 296
115 311
115 315
115 319
115 335
116 123
116 168
116 212
116 225
116 250
116 279
116 284
116 310
117 119
117 124
117 169
117 193
117 201
117 207
117 228
117 258
117 292
117 304
118 131
118 162
118 174
118 176
118 186
118 188
118 195
118 203
118 252
118 261
118 265
118 270
118 288
118 292
118 311
118 317
119 154
119 167
119 168
119 171
119 185
119 191
119 204
119 212
119 262
119 282
119 294
119 321
119 337
119 349
120 162
120 218
120 246
120 253
120 258
120 271
120 282
120 303
120 321
121 134
121 160
121 166
121 194
121 201
121 246
121 249
121 277
121 298
121 302
121 309
121 311
121 322
121 339
121 340
121 346
121 347
121 348
122 153
122 156
122 164
122 235
122 288
122 304
122 311
122 318
122 334
122 346
123 141
123 145
123 175
123 183
123 187
123 201
123 205
123 215
123 218
123 229
123 231
123 260
123 291
123 295
124 136
124 150
124 157
124 160
124 173
124 190
124 195
124 226
124 229
124 243
124 250
124 260
124 306
124 310
124 315
124 343
124 348
125 137
125 149
125 153
125 159
125 162
125 167
125 216
125 231
125 239
125 267
125 284
125 296
125 332
125 337
126 128
126 134
126 187
126 188
126 192
126 195
126 200
126 215
126 226
126 253
126 256
126 263
126 313
126 314
126 342
127 128
127 197
127 237
127 251
127 268
127 288
127 335
128 131
128 146
128 150
128 175
128 197
128 223
128 234
128 246
128 268
128 285
128 312
128 318
128 329
128 339
129 147
129 149
129 170
129 173
129 180
129 187
129 192
129 207
129 210
129 216
129 218
129 234
129 239
129 259
129 261
129 282
129 287
129 307
129 328
129 334
129 345
130 151
130 155
130 169
130 203
130 228
130 231
130 251
130 273
130 317
130 330
131 141
131 170
131 257
131 295
131 316
131 343
132 174
132 229
132 289
132 294
132 311
132 320
132 339
133 143
133 144
133 152
133 162
133 185
133 199
133 230
133 271
133 327
134 138
134 140
134 150
134 151
134 157
134 168
134 231
134 253
134 268
134 288
134 320
134 327
134 339
135 142
135 191
135 197
135 230
135 279
135 304
135 324
135 346
136 144
136 229
136 261
136 287
136 321
136 325
136 330
137 142
137 188
137 201
137 238
137 263
137 289
137 291
137 299
137 302
137 317
137 330
137 332
138 151
138 156
138 195
138 199
138 219
138 230
138 250
138 271
138 275
138 278
138 289
138 307
139 160
139 174
139 204
139 224
139 236
139 250
139 265
139 278
139 301
139 344
140 193
140 194
140 205
140 207
140 215
140 219
140 221
140 250
140 315
140 330
140 344
141 147
141 154
141 161
141 174
141 219
141 223
141 226
141 241
141 258
141 288
141 304
141 313
142 184
142 208
142 219
142 263
142 272
142 294
143 154
143 156
143 160
143 161
143 167
143 291
143 323
143 330
144 248
144 265
144 283
144 285
144 298
144 312
144 314
144 325
145 165
145 195
145 206
145 218
145 225
145 229
145 254
145 259
145 276
145 284
145 293
145 320
145 324
146 280
146 298
146 334
146 345
147 152
147 182
147 198
147 200
147 201
147 213
147 252
147 286
147 327
148 180
148 192
148 196
148 200
148 202
148 208
148 232
148 247
148 250
148 258
148 306
148 317
148 320
148 327
148 336
148 337
149 152
149 155
149 186
149 215
149 218
149 242
149 247
149 259
149 268
149 271
149 275
149 281
149 285
149 321
149 337
150 152
150 228
150 235
150 240
150 242
150 283
150 317
150 327
150 339
151 159
151 173
151 178
151 189
151 213
151 290
151 313
151 334
151 336
152 160
152 170
152 210
152 218
152 233
152 238
152 261
152 265
152 287
152 346
153 174
153 221
153 229
153 234
153 237
153 268
153 272
153 293
153 301
153 302
153 322
153 335
153 336
153 348
154 158
154 160
154 172
154 194
154 243
154 259
154 270
154 276
154 285
154 298
155 170
155 197
155 207
155 214
155 259
155 293
155 344
156 164
156 171
156 175
156 192
156 216
156 223
156 225
156 239
156 263
156 282
156 286
156 290
156 301
156 323
156 336
157 170
157 196
157 259
157 269
157 300
157 315
157 333
157 346
158 176
158 183
158 184
158 211
158 214
158 220
158 264
158 268
158 297
158 303
158 312
158 314
158 344
158 348
159 176
159 185
159 276
159 277
159 278
159 295
159 302
159 327
159 333
159 338
160 194
160 201
160 231
160 234
160 254
160 284
160 294
160 300
160 304
160 337
161 186
161 187
161 208
161 254
161 281
161 300
161 309
161 317
161 341
162 167
162 171
162 179
162 185
162 238
162 276
162 297
162 333
163 200
163 208
163 213
163 216
163 221
163 254
163 289
163 301
163 320
164 181
164 185
164 189
164 196
164 206
164 238
164 246
164 278
164 298
164 327
164 329
165 193
165 203
165 214
165 248
165 315
165 341
165 346
165 347
166 212
166 218
166 240
166 251
166 266
166 280
166 293
166 314
167 179
167 216
167 234
167 309
167 316
167 322
167 324
167 338
168 190
168 196
168 243
168 263
168 314
169 175
169 179
169 185
169 205
169 211
169 212
169 229
169 281
169 288
169 347
170 206
170 208
170 250
170 266
170 287
170 312
170 320
170 334
170 346
171 184
171 200
171 204
171 233
171 250
171 253
171 269
171 277
171 323
171 347
172 174
172 202
172 207
172 217
172 230
172 239
172 249
172 274
172 284
172 305
173 221
173 242
173 253
173 261
173 273
173 276
173 280
174 190
174 193
174 211
174 262
174 269
174 276
174 306
174 318
175 206
175 211
175 214
175 266
175 299
175 323
176 186
176 200
176 228
176 242
176 247
176 259
176 266
176 268
176 341
176 342
177 186
177 261
177 280
177 292
177 310
177 323
177 329
177 344
178 268
178 293
178 300
178 316
178 341
179 190
179 239
179 256
179 270
179 296
179 321
180 181
180 235
180 242
180 263
180 325
180 349
181 224
181 226
181 278
181 300
181 302
181 317
182 184
182 223
182 227
182 236
182 239
182 253
182 268
182 270
182 292
182 328
182 344
182 347
183 186
183 193
183 201
183 251
183 313
183 314
183 317
183 341
184 201
184 211
184 214
184 215
184 217
184 219
184 239
184 240
184 298
184 329
184 339
185 201
185 203
185 208
185 244
185 249
185 252
185 264
185 305
185 306
185 310
185 315
185 345
186 188
186 225
186 242
186 249
186 285
186 348
187 198
187 217
187 222
187 249
187 307
187 312
187 322
188 210
188 222
188 255
188 272
188 277
188 280
188 298
188 303
188 322
188 329
188 331
188 336
189 204
189 206
189 208
189 261
189 274
189 285
189 291
189 293
189 310
189 337
189 342
190 204
190 217
190 236
190 244
190 272
190 326
190 333
191 222
191 233
191 263
191 264
191 279
191 301
191 313
191 320
191 327
191 330
191 347
192 199
192 200
192 205
192 219
192 263
192 264
192 297
192 315
193 216
193 237
193 252
193 258
193 262
193 279
193 287
193 344
194 196
194 217
194 220
194 221
194 230
194 240
194 241
194 244
194 283
194 289
194 317
194 327
194 339
195 201
195 208
195 218
195 243
195 266
195 304
195 309
195 319
196 217
196 220
196 229
196 238
196 245
196 276
196 279
196 298
196 319
197 199
197 306
198 243
198 263
198 268
198 273
198 282
198 289
199 249
199 252
199 253
199 270
199 282
199 288
200 201
200 282
200 304
200 307
201 243
201 293
201 315
201 329
201 330
201 347
202 221
202 255
202 280
202 292
202 294
202 304
202 308
203 208
203 213
203 246
203 260
203 292
203 303
203 306
203 310
204 225
204 258
204 292
204 294
204 301
204 303
204 325
204 326
204 341
204 343
205 224
205 297
205 302
205 327
205 336
205 343
206 269
206 283
206 296
206 349
207 255
207 266
207 267
207 323
207 328
208 227
208 254
208 283
208 319
209 223
209 226
209 318
209 332
209 344
210 294
210 297
210 304
210 307
210 346
211 231
211 237
211 239
211 244
211 261
211 314
211 317
212 231
212 239
212 257
212 264
212 303
212 304
212 310
212 315
212 320
212 324
213 264
213 286
213 316
213 338
213 340
214 271
214 306
215 234
215 244
215 271
215 329
215 338
215 344
216 233
216 262
216 330
216 342
216 349
217 229
217 237
217 263
217 269
217 283
217 329
217 337
217 342
218 278
218 285
218 286
218 294
218 298
218 304
218 324
218 329
218 330
218 334
219 251
219 263
219 306
219 322
219 328
219 348
220 287
220 312
220 324
220 336
221 223
221 248
221 271
221 274
222 302
222 320
223 248
223 268
223 293
223 305
223 307
223 315
223 324
223 332
223 348
224 278
224 279
224 281
225 265
225 289
225 300
225 303
225 309
225 325
226 249
226 274
226 305
226 333
226 335
227 242
227 251
227 255
227 261
227 267
227 319
228 254
228 264
228 269
228 300
228 330
228 333
229 262
229 268
229 279
229 281
229 286
229 299
230 293
230 299
230 326
230 333
230 335
231 237
231 240
231 254
231 341
232 237
232 263
232 286
232 296
232 310
232 320
232 329
233 267
233 269
233 280
233 312
233 314
233 331
233 335
233 347
234 240
234 253
234 260
234 264
234 276
234 279
234 297
234 323
234 324
234 338
234 342
235 239
235 254
235 257
235 268
235 283
235 289
235 299
235 302
235 310
235 329
236 267
236 274
236 307
236 318
236 336
236 338
237 256
237 257
237 288
237 304
237 314
237 324
237 326
238 253
238 311
238 334
239 245
239 248
239 250
239 270
239 271
239 293
239 295
239 336
240 250
240 265
240 310
241 242
241 257
241 298
241 338
241 349
242 263
242 314
242 333
242 341
242 346
243 256
243 261
243 273
243 282
243 288
243 293
243 329
243 331
243 333
244 252
244 254
244 263
244 268
244 287
244 292
244 305
244 307
244 345
245 248
245 268
246 249
246 254
246 267
246 270
246 275
246 280
246 283
246 313
246 314
246 317
246 349
247 265
247 277
247 325
247 346
248 273
248 284
248 291
248 297
248 334
248 341
248 345
248 348
249 268
249 275
249 314
249 341
250 257
250 267
250 295
250 297
250 305
250 311
250 334
250 343
250 347
251 271
251 282
251 321
251 333
251 344
252 272
252 283
252 300
252 301
252 306
252 315
253 268
253 289
253 298
253 312
254 279
254 291
255 272
255 287
255 288
255 338
255 348
256 258
256 275
256 335
257 270
257 294
257 334
257 339
257 341
257 344
258 285
258 292
258 310
259 272
259 278
259 289
259 304
259 317
259 346
260 288
260 293
260 348
261 287
261 292
261 333
262 263
262 271
262 294
262 317
263 284
263 292
263 298
263 335
264 286
264 318
264 320
264 330
264 336
264 337
265 277
265 299
265 301
265 302
265 306
265 341
266 286
266 296
266 298
266 299
266 314
266 326
266 329
267 294
267 315
267 327
268 283
268 285
268 299
269 318
269 342
270 348
270 349
271 328
271 341
272 275
272 278
272 293
273 298
273 301
273 324
274 275
274 290
274 297
274 306
274 324
275 292
278 346
279 291
279 301
279 333
279 345
280 313
280 335
281 314
282 308
282 314
282 319
282 334
282 337
282 347
283 298
284 285
284 286
284 301
284 333
284 337
285 293
285 294
286 325
286 332
287 300
287 317
287 341
287 345
288 303
288 345
289 306
290 295
291 301
291 308
291 326
292 293
292 337
293 319
294 295
294 301
294 327
295 314
296 318
296 340
297 321
297 323
297 324
297 332
297 339
298 308
299 339
300 302
300 343
300 346
301 319
302 312
302 348
303 310
303 318
303 330
303 345
304 320
304 342
304 348
305 308
306 329
306 344
307 310
307 348
308 316
308 331
309 310
309 315
309 332
310 322
310 339
310 341
311 324
311 341
311 349
312 333
312 340
313 333
313 334
314 318
314 326
316 339
317 343
319 324
319 346
320 323
320 325
320 348
321 335
321 340
322 325
323 326
323 337
327 333
328 342
329 342
330 342
331 349
332 336
334 335
335 344
335 346
335 349
345 348
