0 5
0 42
0 68
0 79
0 93
0 130
0 144
0 150
0 155
0 182
0 188
0 198
0 218
0 229
0 230
0 236
0 248
0 254
0 257
0 279
0 295
0 325
0 356
0 366
0 383
0 420
0 433
0 514
0 570
0 655
0 672
0 688
0 714
0 818
0 837
0 840
0 872
0 887
0 889
0 896
0 919
1 33
1 94
1 118
1 180
1 237
1 267
1 281
1 326
1 352
1 353
1 369
1 427
1 428
1 455
1 456
1 459
1 476
1 489
1 498
1 567
1 572
1 591
1 597
1 624
1 685
1 716
1 778
1 815
1 853
1 857
1 879
1 883
1 895
1 974
2 34
2 56
2 57
2 72
2 103
2 121
2 140
2 153
2 202
2 241
2 256
2 282
2 335
2 342
2 349
2 365
2 426
2 430
2 431
2 432
2 433
2 451
2 485
2 492
2 531
2 554
2 608
2 617
2 626
2 634
2 709
2 780
2 833
2 840
2 850
3 8
3 33
3 35
3 63
3 71
3 77
3 125
3 138
3 186
3 246
3 256
3 258
3 269
3 278
3 286
3 334
3 349
3 359
3 361
3 383
3 440
3 450
3 465
3 481
3 526
3 541
3 572
3 576
3 581
3 640
3 644
3 688
3 724
3 730
3 807
3 817
3 826
3 829
3 854
3 883
3 943
3 946
3 966
4 31
4 36
4 59
4 60
4 87
4 99
4 254
4 274
4 281
4 303
4 315
4 347
4 363
4 389
4 394
4 407
4 436
4 447
4 513
4 556
4 564
4 566
4 570
4 573
4 588
4 589
4 609
4 616
4 623
4 659
4 683
4 694
4 710
4 713
4 776
4 798
4 812
4 836
4 837
4 993
5 45
5 88
5 108
5 121
5 178
5 185
5 251
5 259
5 283
5 303
5 312
5 371
5 379
5 437
5 471
5 492
5 500
5 506
5 627
5 633
5 652
5 727
5 773
5 775
5 781
5 788
5 798
5 799
5 831
5 862
5 924
5 949
5 999
6 17
6 28
6 96
6 119
6 123
6 125
6 192
6 196
6 204
6 229
6 267
6 318
6 334
6 363
6 371
6 377
6 382
6 407
6 416
6 437
6 473
6 538
6 548
6 550
6 628
6 631
6 685
6 698
6 709
6 742
6 743
6 791
6 823
6 833
6 899
6 908
6 929
6 930
6 941
7 9
7 84
7 167
7 209
7 248
7 258
7 259
7 305
7 442
7 449
7 464
7 468
7 479
7 488
7 512
7 541
7 552
7 555
7 558
7 583
7 604
7 637
7 650
7 658
7 662
7 729
7 731
7 770
7 829
7 873
7 883
7 900
7 906
7 911
7 913
7 925
7 937
7 944
8 88
8 91
8 148
8 152
8 154
8 166
8 174
8 182
8 191
8 236
8 245
8 270
8 337
8 343
8 375
8 386
8 460
8 547
8 572
8 578
8 601
8 610
8 623
8 640
8 718
8 723
8 728
8 778
8 794
8 841
8 859
8 862
8 958
8 981
9 68
9 93
9 114
9 142
9 161
9 199
9 240
9 328
9 337
9 358
9 439
9 454
9 458
9 507
9 523
9 530
9 548
9 549
9 575
9 578
9 592
9 606
9 631
9 632
9 748
9 781
9 896
9 932
9 944
9 958
10 12
10 31
10 78
10 82
10 92
10 153
10 194
10 213
10 220
10 250
10 278
10 298
10 301
10 393
10 412
10 520
10 551
10 570
10 581
10 607
10 633
10 682
10 684
10 693
10 719
10 727
10 732
10 752
10 788
10 808
10 832
10 867
10 947
10 968
10 989
10 990
10 997
11 25
11 46
11 83
11 88
11 146
11 155
11 174
11 203
11 309
11 317
11 319
11 358
11 424
11 459
11 496
11 509
11 556
11 610
11 638
11 714
11 719
11 726
11 764
11 771
11 778
11 811
11 852
11 932
11 963
11 971
11 981
11 984
12 76
12 87
12 104
12 133
12 200
12 286
12 342
12 346
12 374
12 424
12 497
12 504
12 533
12 588
12 619
12 629
12 647
12 708
12 724
12 726
12 736
12 746
12 759
12 763
12 821
12 830
12 912
12 932
13 25
13 47
13 54
13 85
13 126
13 158
13 169
13 177
13 198
13 249
13 256
13 275
13 312
13 327
13 364
13 378
13 392
13 478
13 573
13 598
13 611
13 659
13 664
13 667
13 684
13 779
13 790
13 801
13 832
13 852
13 863
13 871
13 875
13 935
13 968
14 64
14 105
14 118
14 122
14 164
14 177
14 179
14 191
14 195
14 197
14 215
14 218
14 243
14 251
14 253
14 290
14 329
14 368
14 369
14 436
14 467
14 489
14 575
14 579
14 621
14 641
14 658
14 686
14 728
14 791
14 832
14 909
14 915
14 964
14 969
14 972
14 984
14 990
15 65
15 68
15 78
15 105
15 108
15 130
15 146
15 152
15 221
15 228
15 243
15 245
15 263
15 265
15 296
15 306
15 328
15 376
15 425
15 471
15 489
15 527
15 562
15 612
15 690
15 703
15 736
15 744
15 766
15 863
15 864
15 894
15 910
15 937
15 953
15 968
16 75
16 76
16 112
16 133
16 139
16 191
16 242
16 255
16 302
16 404
16 436
16 463
16 488
16 524
16 527
16 553
16 574
16 654
16 684
16 694
16 720
16 798
16 819
16 842
16 897
16 939
16 968
17 31
17 62
17 77
17 87
17 98
17 117
17 160
17 216
17 229
17 255
17 293
17 323
17 342
17 374
17 384
17 385
17 393
17 456
17 619
17 634
17 647
17 649
17 692
17 710
17 720
17 775
17 805
17 810
17 812
17 848
17 866
17 874
17 917
17 929
18 45
18 62
18 67
18 81
18 101
18 130
18 142
18 164
18 262
18 363
18 399
18 401
18 407
18 440
18 455
18 471
18 478
18 487
18 503
18 526
18 546
18 613
18 615
18 632
18 672
18 705
18 724
18 729
18 758
18 764
18 796
18 837
18 851
18 873
18 926
18 939
18 970
19 20
19 31
19 104
19 123
19 232
19 299
19 370
19 372
19 381
19 430
19 447
19 476
19 523
19 535
19 563
19 573
19 624
19 745
19 789
19 812
19 843
19 846
19 882
19 885
19 889
19 920
19 924
19 939
19 968
19 980
20 112
20 121
20 125
20 128
20 143
20 245
20 253
20 277
20 288
20 318
20 325
20 330
20 336
20 412
20 518
20 612
20 697
20 708
20 736
20 751
20 772
20 809
20 813
20 852
20 920
20 986
21 57
21 97
21 100
21 136
21 137
21 155
21 160
21 179
21 210
21 294
21 335
21 356
21 426
21 434
21 493
21 500
21 561
21 622
21 735
21 760
21 773
21 787
21 788
21 822
21 830
21 937
21 963
21 965
22 24
22 39
22 45
22 169
22 189
22 219
22 247
22 264
22 286
22 291
22 320
22 324
22 346
22 354
22 378
22 399
22 404
22 415
22 450
22 459
22 463
22 489
22 508
22 539
22 596
22 629
22 633
22 674
22 738
22 785
22 791
22 818
22 890
22 930
22 993
23 26
23 37
23 52
23 76
23 133
23 155
23 198
23 286
23 308
23 353
23 406
23 434
23 438
23 459
23 465
23 469
23 503
23 578
23 628
23 638
23 644
23 652
23 663
23 716
23 748
23 850
23 884
23 917
23 935
23 952
24 34
24 41
24 42
24 64
24 73
24 84
24 89
24 94
24 119
24 121
24 160
24 180
24 185
24 222
24 261
24 289
24 328
24 331
24 356
24 435
24 468
24 594
24 608
24 638
24 640
24 678
24 709
24 716
24 731
24 735
24 745
24 777
24 783
24 800
24 881
24 912
24 939
24 945
24 961
24 987
25 47
25 67
25 85
25 115
25 165
25 172
25 242
25 312
25 323
25 355
25 383
25 395
25 430
25 446
25 528
25 548
25 630
25 638
25 658
25 694
25 706
25 882
25 896
25 917
25 928
25 940
25 986
26 69
26 75
26 87
26 91
26 93
26 103
26 128
26 167
26 176
26 204
26 229
26 266
26 309
26 357
26 383
26 386
26 404
26 458
26 585
26 614
26 621
26 632
26 663
26 668
26 706
26 722
26 739
26 768
26 775
26 779
26 828
26 841
26 842
26 899
26 905
26 926
26 940
26 943
26 998
27 64
27 100
27 148
27 157
27 237
27 253
27 262
27 283
27 301
27 363
27 423
27 443
27 479
27 568
27 573
27 583
27 613
27 619
27 628
27 740
27 747
27 847
27 861
27 914
27 925
27 926
27 952
27 979
28 58
28 71
28 136
28 156
28 171
28 188
28 231
28 241
28 279
28 296
28 298
28 354
28 413
28 488
28 492
28 515
28 552
28 559
28 649
28 742
28 793
28 800
28 816
28 850
28 914
28 933
28 940
28 949
29 43
29 210
29 215
29 220
29 233
29 257
29 276
29 281
29 282
29 294
29 319
29 352
29 400
29 419
29 460
29 473
29 487
29 553
29 559
29 595
29 660
29 691
29 760
29 768
29 807
29 837
29 849
29 862
29 913
29 921
29 972
29 983
29 999
30 37
30 38
30 40
30 43
30 98
30 108
30 160
30 212
30 214
30 240
30 248
30 257
30 304
30 305
30 321
30 324
30 345
30 346
30 349
30 360
30 366
30 392
30 415
30 426
30 547
30 553
30 554
30 570
30 591
30 645
30 686
30 718
30 749
30 811
30 863
30 912
30 921
30 985
30 997
31 44
31 52
31 75
31 139
31 140
31 230
31 283
31 485
31 507
31 508
31 522
31 555
31 556
31 613
31 638
31 642
31 669
31 707
31 740
31 742
31 805
31 851
31 864
31 888
31 906
31 961
32 71
32 131
32 136
32 153
32 190
32 208
32 219
32 297
32 337
32 338
32 387
32 388
32 398
32 428
32 442
32 527
32 532
32 537
32 538
32 543
32 578
32 629
32 706
32 726
32 753
32 825
32 840
32 884
32 888
32 896
32 914
32 920
32 930
32 931
32 949
32 967
33 59
33 79
33 80
33 183
33 270
33 312
33 336
33 384
33 388
33 412
33 422
33 448
33 522
33 543
33 581
33 589
33 618
33 625
33 635
33 645
33 711
33 739
33 861
33 896
33 911
33 913
33 926
33 967
33 980
34 176
34 188
34 212
34 323
34 359
34 384
34 471
34 489
34 517
34 549
34 562
34 571
34 581
34 583
34 738
34 740
34 757
34 775
34 812
34 887
34 917
34 921
34 925
35 54
35 83
35 103
35 247
35 293
35 326
35 398
35 502
35 566
35 582
35 596
35 642
35 662
35 671
35 675
35 706
35 754
35 884
35 971
35 976
36 46
36 84
36 87
36 128
36 267
36 292
36 296
36 299
36 304
36 383
36 424
36 432
36 493
36 513
36 531
36 575
36 744
36 750
36 760
36 768
36 790
36 795
36 818
36 858
36 859
36 920
36 981
36 983
36 989
36 993
37 61
37 151
37 156
37 157
37 254
37 353
37 375
37 430
37 434
37 442
37 457
37 516
37 517
37 566
37 567
37 576
37 589
37 625
37 663
37 685
37 691
37 780
37 789
37 808
37 810
37 824
37 857
37 879
37 882
37 884
37 905
37 916
37 946
37 974
38 41
38 87
38 102
38 158
38 173
38 216
38 226
38 260
38 263
38 301
38 495
38 522
38 525
38 543
38 631
38 665
38 712
38 728
38 750
38 766
38 877
38 885
38 908
38 942
38 957
39 62
39 121
39 129
39 136
39 153
39 158
39 160
39 286
39 323
39 371
39 464
39 469
39 544
39 553
39 579
39 593
39 692
39 700
39 730
39 744
39 796
39 817
39 822
39 832
39 848
39 863
39 891
40 83
40 99
40 154
40 155
40 156
40 168
40 169
40 295
40 325
40 332
40 382
40 389
40 435
40 458
40 466
40 511
40 582
40 635
40 652
40 655
40 657
40 681
40 711
40 793
40 802
40 812
40 817
40 846
40 850
40 927
40 934
41 86
41 90
41 118
41 137
41 148
41 152
41 175
41 205
41 208
41 247
41 281
41 290
41 293
41 301
41 377
41 389
41 398
41 423
41 424
41 438
41 441
41 483
41 486
41 505
41 545
41 567
41 582
41 610
41 724
41 743
41 798
41 883
41 906
41 933
41 960
41 987
41 992
42 64
42 98
42 105
42 161
42 165
42 186
42 201
42 214
42 224
42 298
42 347
42 384
42 416
42 471
42 472
42 483
42 489
42 518
42 527
42 608
42 621
42 637
42 647
42 731
42 742
42 868
42 888
42 889
42 911
42 949
43 45
43 54
43 113
43 130
43 180
43 187
43 212
43 267
43 315
43 329
43 424
43 437
43 460
43 469
43 474
43 524
43 554
43 573
43 577
43 578
43 599
43 633
43 728
43 763
43 770
43 785
43 786
43 816
43 817
43 827
43 836
43 861
43 863
43 865
43 891
43 905
43 956
43 964
43 968
43 987
43 991
43 998
44 86
44 89
44 113
44 127
44 172
44 212
44 259
44 262
44 264
44 268
44 270
44 280
44 331
44 353
44 362
44 391
44 401
44 405
44 407
44 433
44 457
44 461
44 464
44 470
44 483
44 595
44 603
44 647
44 697
44 737
44 787
44 806
44 810
44 896
44 935
44 950
44 996
44 999
45 131
45 160
45 259
45 281
45 287
45 307
45 315
45 340
45 372
45 410
45 439
45 497
45 527
45 554
45 574
45 623
45 647
45 663
45 669
45 676
45 708
45 710
45 711
45 755
45 796
45 888
45 951
46 109
46 153
46 185
46 196
46 200
46 403
46 465
46 468
46 478
46 489
46 528
46 548
46 568
46 588
46 595
46 617
46 641
46 646
46 657
46 701
46 757
46 762
46 774
46 787
46 819
46 865
46 887
46 909
46 916
46 921
46 932
46 966
46 990
46 995
46 997
47 53
47 79
47 90
47 112
47 116
47 121
47 150
47 184
47 213
47 259
47 294
47 318
47 320
47 380
47 473
47 532
47 540
47 541
47 557
47 689
47 711
47 766
47 783
47 795
47 841
47 918
47 949
47 957
48 105
48 151
48 154
48 205
48 217
48 223
48 236
48 266
48 308
48 367
48 378
48 390
48 457
48 458
48 476
48 508
48 662
48 679
48 760
48 791
48 792
48 802
48 864
48 907
49 66
49 128
49 185
49 216
49 246
49 263
49 278
49 314
49 328
49 333
49 379
49 456
49 491
49 499
49 528
49 532
49 534
49 587
49 592
49 619
49 628
49 642
49 654
49 706
49 712
49 745
49 774
49 817
49 836
49 890
49 894
49 956
49 976
50 81
50 91
50 109
50 137
50 141
50 149
50 156
50 246
50 272
50 295
50 350
50 414
50 438
50 455
50 474
50 556
50 584
50 603
50 610
50 665
50 688
50 725
50 732
50 741
50 752
50 812
50 823
50 857
50 873
50 917
50 986
51 77
51 81
51 203
51 224
51 230
51 233
51 251
51 366
51 376
51 385
51 403
51 464
51 519
51 522
51 537
51 580
51 618
51 647
51 661
51 678
51 702
51 714
51 733
51 744
51 794
51 797
51 813
51 854
51 868
51 892
51 964
51 990
52 91
52 99
52 101
52 104
52 107
52 176
52 192
52 218
52 242
52 358
52 364
52 383
52 408
52 434
52 600
52 613
52 630
52 661
52 667
52 715
52 751
52 850
52 853
52 859
52 882
52 896
52 943
52 945
52 950
52 968
52 995
53 156
53 208
53 288
53 345
53 376
53 381
53 391
53 436
53 467
53 497
53 552
53 624
53 664
53 697
53 700
53 702
53 725
53 745
53 762
53 801
53 833
53 951
53 994
54 75
54 102
54 146
54 200
54 209
54 220
54 258
54 273
54 319
54 336
54 340
54 394
54 454
54 455
54 458
54 514
54 546
54 561
54 667
54 706
54 800
54 807
54 825
54 850
54 855
54 858
54 873
54 906
54 914
54 930
54 961
54 968
54 992
54 996
55 58
55 123
55 165
55 181
55 184
55 211
55 224
55 239
55 270
55 325
55 386
55 438
55 442
55 534
55 544
55 546
55 547
55 596
55 607
55 611
55 630
55 635
55 647
55 709
55 726
55 763
55 814
55 828
55 833
55 872
55 880
55 899
55 907
55 909
55 912
55 948
55 966
56 63
56 141
56 217
56 246
56 256
56 258
56 303
56 306
56 307
56 320
56 358
56 386
56 388
56 392
56 435
56 458
56 469
56 502
56 510
56 517
56 532
56 551
56 586
56 597
56 613
56 616
56 628
56 629
56 658
56 728
56 737
56 749
56 807
56 817
56 818
56 836
56 897
56 920
56 926
56 931
56 945
56 982
56 988
56 990
56 999
57 122
57 151
57 162
57 173
57 178
57 185
57 263
57 273
57 321
57 330
57 337
57 349
57 462
57 485
57 512
57 541
57 548
57 596
57 667
57 700
57 702
57 716
57 738
57 751
57 765
57 772
57 792
57 844
57 967
57 996
58 139
58 144
58 168
58 176
58 234
58 299
58 360
58 366
58 387
58 445
58 520
58 525
58 545
58 553
58 598
58 599
58 603
58 653
58 670
58 685
58 754
58 790
58 814
58 883
59 73
59 117
59 118
59 161
59 170
59 177
59 180
59 190
59 292
59 314
59 383
59 389
59 437
59 438
59 441
59 456
59 508
59 512
59 517
59 534
59 597
59 649
59 678
59 683
59 742
59 766
59 831
59 885
59 904
59 972
60 85
60 99
60 175
60 213
60 231
60 275
60 277
60 322
60 328
60 331
60 389
60 414
60 431
60 481
60 483
60 562
60 591
60 636
60 668
60 670
60 677
60 725
60 766
60 793
60 855
60 859
60 878
60 880
60 942
60 962
60 984
61 62
61 96
61 99
61 130
61 134
61 195
61 222
61 224
61 244
61 304
61 327
61 411
61 415
61 418
61 464
61 498
61 557
61 580
61 642
61 672
61 680
61 691
61 705
61 732
61 815
61 833
61 843
61 848
61 849
61 888
61 930
61 931
61 996
62 83
62 170
62 174
62 206
62 255
62 283
62 295
62 307
62 321
62 335
62 366
62 378
62 380
62 394
62 404
62 413
62 437
62 446
62 449
62 482
62 491
62 494
62 512
62 543
62 576
62 595
62 623
62 634
62 676
62 680
62 696
62 697
62 730
62 741
62 865
62 958
62 969
62 972
62 985
63 116
63 129
63 160
63 162
63 175
63 215
63 254
63 279
63 283
63 297
63 299
63 317
63 335
63 347
63 389
63 404
63 432
63 434
63 444
63 467
63 486
63 490
63 532
63 566
63 600
63 620
63 677
63 717
63 720
63 749
63 802
63 807
63 872
63 900
63 919
63 942
63 947
64 108
64 123
64 174
64 183
64 222
64 239
64 274
64 286
64 317
64 363
64 370
64 427
64 446
64 529
64 530
64 553
64 560
64 581
64 589
64 620
64 633
64 697
64 743
64 798
64 841
64 848
64 855
64 870
64 873
64 879
64 982
64 994
65 81
65 102
65 107
65 111
65 130
65 181
65 187
65 230
65 291
65 295
65 296
65 306
65 315
65 340
65 352
65 410
65 427
65 451
65 482
65 543
65 592
65 599
65 627
65 663
65 675
65 707
65 720
65 741
65 743
65 781
65 844
65 855
65 937
65 964
65 993
66 131
66 179
66 203
66 240
66 292
66 304
66 369
66 378
66 421
66 483
66 518
66 584
66 623
66 634
66 637
66 682
66 690
66 729
66 731
66 737
66 739
66 780
66 783
66 799
66 842
66 898
66 916
66 917
66 933
66 936
66 960
66 987
67 68
67 72
67 73
67 83
67 86
67 112
67 280
67 295
67 300
67 318
67 331
67 395
67 400
67 430
67 498
67 509
67 541
67 545
67 577
67 586
67 595
67 598
67 612
67 635
67 662
67 733
67 781
67 877
67 894
67 913
67 985
68 123
68 145
68 208
68 257
68 300
68 427
68 431
68 450
68 468
68 531
68 572
68 587
68 687
68 732
68 738
68 807
68 837
68 839
68 854
68 869
68 871
68 886
68 925
68 945
69 73
69 77
69 86
69 104
69 159
69 164
69 253
69 270
69 276
69 303
69 308
69 333
69 346
69 350
69 389
69 430
69 434
69 441
69 522
69 551
69 552
69 561
69 571
69 584
69 613
69 668
69 682
69 705
69 719
69 739
69 749
69 755
69 772
69 797
69 825
69 826
69 866
69 904
69 906
69 930
69 952
69 961
69 994
70 132
70 142
70 195
70 224
70 255
70 300
70 363
70 385
70 443
70 452
70 454
70 460
70 464
70 486
70 534
70 557
70 561
70 578
70 666
70 668
70 723
70 726
70 739
70 745
70 763
70 768
70 769
70 772
70 801
70 813
70 851
70 857
70 858
70 889
70 926
70 975
71 90
71 96
71 130
71 186
71 199
71 223
71 232
71 252
71 253
71 286
71 297
71 327
71 349
71 357
71 392
71 407
71 480
71 529
71 559
71 615
71 704
71 710
71 721
71 762
71 779
71 826
71 915
71 916
71 924
71 970
71 973
72 82
72 99
72 102
72 238
72 251
72 265
72 266
72 269
72 283
72 323
72 390
72 405
72 422
72 451
72 477
72 489
72 490
72 506
72 507
72 527
72 557
72 573
72 599
72 613
72 643
72 657
72 670
72 689
72 745
72 771
72 772
72 800
72 826
72 855
72 868
72 875
72 896
72 914
72 929
72 948
72 985
73 100
73 135
73 212
73 358
73 447
73 480
73 520
73 521
73 554
73 569
73 593
73 597
73 603
73 682
73 737
73 749
73 750
73 786
73 791
73 808
73 824
73 832
73 835
73 949
73 964
73 966
74 138
74 186
74 187
74 190
74 214
74 236
74 243
74 301
74 316
74 345
74 358
74 388
74 401
74 493
74 499
74 601
74 605
74 611
74 617
74 621
74 677
74 688
74 747
74 854
74 856
74 913
74 922
74 927
74 941
74 964
75 85
75 159
75 163
75 200
75 260
75 285
75 298
75 321
75 348
75 400
75 420
75 464
75 469
75 476
75 484
75 514
75 579
75 649
75 674
75 720
75 731
75 751
75 763
75 825
75 848
75 874
75 877
75 880
75 954
75 989
76 77
76 125
76 134
76 154
76 207
76 213
76 278
76 327
76 328
76 360
76 436
76 443
76 600
76 610
76 617
76 637
76 701
76 710
76 743
76 761
76 823
76 826
76 843
76 856
76 876
76 959
76 967
76 987
77 88
77 95
77 121
77 142
77 181
77 216
77 222
77 233
77 261
77 299
77 317
77 363
77 439
77 502
77 548
77 552
77 575
77 583
77 608
77 609
77 627
77 629
77 646
77 718
77 784
77 787
77 911
77 924
77 945
77 987
78 224
78 226
78 282
78 295
78 331
78 342
78 366
78 380
78 415
78 416
78 440
78 444
78 500
78 561
78 621
78 635
78 650
78 709
78 738
78 777
78 796
78 832
78 840
78 842
78 871
78 905
78 908
78 922
79 152
79 179
79 189
79 195
79 244
79 271
79 314
79 321
79 367
79 391
79 444
79 464
79 504
79 554
79 555
79 586
79 609
79 648
79 667
79 681
79 688
79 692
79 734
79 779
79 790
79 882
79 895
79 964
79 967
79 983
79 988
80 110
80 123
80 128
80 160
80 186
80 234
80 315
80 413
80 418
80 424
80 460
80 557
80 588
80 721
80 747
80 802
80 821
80 853
80 882
80 900
80 906
80 914
80 915
80 921
80 925
80 948
80 969
80 991
81 86
81 93
81 98
81 132
81 147
81 185
81 188
81 199
81 234
81 236
81 237
81 280
81 294
81 376
81 388
81 389
81 402
81 411
81 558
81 566
81 591
81 598
81 605
81 612
81 615
81 628
81 631
81 669
81 672
81 751
81 772
81 830
81 871
81 905
81 963
81 972
81 988
82 185
82 196
82 300
82 367
82 398
82 447
82 458
82 528
82 542
82 585
82 599
82 603
82 662
82 723
82 726
82 729
82 749
82 762
82 771
82 811
82 814
82 871
82 877
82 947
82 958
82 990
83 85
83 125
83 267
83 300
83 306
83 403
83 413
83 416
83 458
83 479
83 483
83 497
83 506
83 511
83 543
83 553
83 560
83 572
83 582
83 583
83 637
83 677
83 686
83 689
83 723
83 732
83 735
83 741
83 793
83 808
83 842
83 853
83 891
83 910
83 960
83 961
83 979
84 118
84 131
84 161
84 230
84 267
84 290
84 297
84 307
84 314
84 324
84 350
84 365
84 373
84 377
84 382
84 391
84 397
84 449
84 479
84 542
84 552
84 575
84 605
84 621
84 654
84 700
84 702
84 704
84 715
84 734
84 776
84 786
84 802
84 832
84 850
84 861
84 875
84 920
84 921
84 936
84 956
84 961
85 90
85 122
85 151
85 152
85 167
85 215
85 240
85 250
85 279
85 312
85 315
85 322
85 358
85 367
85 394
85 424
85 450
85 463
85 481
85 530
85 533
85 578
85 582
85 610
85 622
85 638
85 642
85 648
85 652
85 692
85 734
85 760
85 776
85 812
85 863
85 907
85 950
85 962
86 112
86 134
86 135
86 149
86 163
86 205
86 224
86 235
86 300
86 342
86 364
86 411
86 510
86 521
86 537
86 651
86 652
86 676
86 775
86 805
86 844
86 864
86 875
86 886
86 916
86 974
86 982
86 994
86 998
87 95
87 239
87 252
87 254
87 260
87 318
87 325
87 356
87 369
87 417
87 446
87 450
87 462
87 487
87 513
87 520
87 555
87 610
87 629
87 644
87 663
87 666
87 715
87 721
87 726
87 797
87 813
87 828
87 837
87 883
87 898
87 919
87 952
87 975
88 100
88 180
88 249
88 263
88 320
88 341
88 367
88 376
88 421
88 471
88 516
88 520
88 538
88 545
88 675
88 687
88 773
88 786
88 823
88 848
88 867
88 868
88 877
88 889
88 908
88 936
88 969
88 997
89 120
89 193
89 200
89 208
89 231
89 258
89 267
89 271
89 309
89 320
89 326
89 345
89 374
89 435
89 436
89 458
89 488
89 517
89 523
89 543
89 636
89 656
89 676
89 700
89 736
89 776
89 842
89 857
89 862
89 883
89 913
89 950
90 141
90 153
90 155
90 163
90 180
90 187
90 195
90 201
90 252
90 345
90 346
90 350
90 399
90 403
90 447
90 498
90 514
90 552
90 562
90 574
90 589
90 593
90 599
90 633
90 662
90 731
90 734
90 803
90 805
90 822
90 848
90 866
90 869
90 871
90 905
90 995
91 129
91 150
91 161
91 164
91 214
91 224
91 262
91 328
91 381
91 383
91 414
91 420
91 456
91 459
91 478
91 533
91 588
91 592
91 614
91 632
91 675
91 734
91 737
91 741
91 761
91 775
91 818
91 834
91 837
91 852
91 898
91 913
91 966
92 107
92 113
92 120
92 130
92 163
92 174
92 184
92 211
92 228
92 233
92 245
92 293
92 348
92 409
92 431
92 449
92 470
92 513
92 604
92 639
92 653
92 696
92 733
92 821
92 906
92 981
92 985
93 116
93 137
93 161
93 239
93 271
93 290
93 336
93 353
93 373
93 375
93 443
93 490
93 499
93 511
93 543
93 575
93 594
93 603
93 620
93 653
93 656
93 669
93 673
93 698
93 709
93 755
93 775
93 796
93 806
93 823
93 884
93 910
93 919
93 931
93 940
93 941
93 982
93 988
94 101
94 106
94 137
94 138
94 145
94 155
94 163
94 167
94 230
94 232
94 249
94 286
94 301
94 306
94 317
94 335
94 351
94 402
94 454
94 552
94 576
94 580
94 635
94 648
94 676
94 701
94 705
94 715
94 783
94 806
94 863
94 877
94 885
94 996
94 998
95 106
95 185
95 229
95 244
95 265
95 315
95 317
95 320
95 322
95 334
95 351
95 381
95 399
95 420
95 500
95 531
95 583
95 618
95 619
95 632
95 670
95 673
95 675
95 686
95 719
95 741
95 775
95 830
95 922
95 946
95 964
95 966
95 981
95 998
96 199
96 206
96 224
96 240
96 254
96 269
96 271
96 319
96 356
96 379
96 412
96 460
96 465
96 505
96 516
96 535
96 544
96 613
96 636
96 638
96 641
96 643
96 689
96 783
96 784
96 791
96 799
96 842
96 861
96 869
96 917
96 941
96 959
97 121
97 134
97 178
97 190
97 256
97 280
97 293
97 310
97 329
97 347
97 424
97 456
97 471
97 485
97 499
97 516
97 550
97 585
97 594
97 604
97 617
97 618
97 621
97 623
97 627
97 652
97 654
97 661
97 742
97 803
97 822
97 837
97 857
97 878
97 893
97 894
97 921
97 941
97 947
97 989
98 151
98 159
98 168
98 176
98 194
98 195
98 211
98 235
98 243
98 311
98 333
98 343
98 345
98 367
98 404
98 411
98 416
98 419
98 496
98 509
98 516
98 531
98 572
98 603
98 616
98 621
98 670
98 673
98 695
98 701
98 745
98 762
98 785
98 793
98 797
98 811
98 822
98 829
98 832
98 833
98 911
98 946
98 959
98 969
98 993
99 108
99 165
99 174
99 229
99 262
99 264
99 303
99 327
99 436
99 446
99 449
99 513
99 536
99 541
99 544
99 559
99 568
99 574
99 576
99 602
99 608
99 709
99 713
99 798
99 869
99 882
99 885
99 899
99 914
99 920
99 931
99 978
99 991
100 132
100 147
100 204
100 245
100 260
100 279
100 326
100 343
100 364
100 381
100 387
100 399
100 410
100 462
100 484
100 505
100 594
100 598
100 611
100 626
100 679
100 766
100 774
100 780
100 790
100 815
100 820
100 846
100 893
100 920
100 935
100 955
100 971
100 992
101 112
101 135
101 147
101 221
101 232
101 253
101 254
101 263
101 276
101 359
101 443
101 484
101 511
101 515
101 537
101 588
101 593
101 616
101 710
101 753
101 806
101 807
101 888
101 903
101 904
101 909
101 916
101 940
101 961
102 118
102 145
102 187
102 199
102 236
102 239
102 254
102 280
102 332
102 426
102 428
102 460
102 491
102 517
102 539
102 566
102 580
102 588
102 656
102 681
102 722
102 746
102 751
102 814
102 840
102 841
102 944
102 952
103 106
103 114
103 134
103 136
103 161
103 185
103 200
103 240
103 300
103 304
103 335
103 337
103 348
103 398
103 411
103 430
103 446
103 543
103 552
103 576
103 590
103 622
103 657
103 663
103 678
103 778
103 795
103 857
103 861
103 881
103 946
103 964
103 969
103 979
104 126
104 150
104 183
104 192
104 224
104 261
104 278
104 281
104 294
104 394
104 399
104 411
104 417
104 464
104 482
104 497
104 498
104 538
104 539
104 547
104 565
104 585
104 616
104 666
104 675
104 717
104 807
104 830
104 841
104 864
104 901
104 913
104 926
104 931
104 964
104 967
105 115
105 135
105 162
105 179
105 196
105 298
105 322
105 365
105 432
105 436
105 462
105 522
105 533
105 535
105 540
105 578
105 605
105 666
105 694
105 703
105 756
105 802
105 830
105 893
105 921
105 931
105 953
105 964
105 983
106 161
106 180
106 182
106 202
106 223
106 226
106 263
106 281
106 304
106 323
106 341
106 348
106 353
106 356
106 370
106 406
106 427
106 457
106 465
106 468
106 526
106 533
106 566
106 570
106 632
106 658
106 668
106 695
106 800
106 929
106 969
106 985
107 253
107 262
107 273
107 295
107 311
107 313
107 330
107 332
107 402
107 404
107 454
107 479
107 524
107 531
107 578
107 599
107 638
107 645
107 668
107 751
107 753
107 755
107 756
107 801
107 813
107 829
107 886
107 890
107 902
107 940
107 970
108 128
108 139
108 152
108 184
108 203
108 241
108 245
108 255
108 287
108 338
108 373
108 420
108 426
108 543
108 599
108 647
108 687
108 715
108 764
108 785
108 828
108 833
108 870
108 931
109 112
109 218
109 224
109 229
109 254
109 275
109 289
109 301
109 319
109 337
109 338
109 354
109 387
109 395
109 423
109 530
109 540
109 568
109 589
109 624
109 633
109 652
109 658
109 672
109 692
109 750
109 772
109 854
109 890
109 893
109 902
109 905
109 907
109 911
109 944
109 951
109 964
110 124
110 135
110 221
110 243
110 301
110 314
110 330
110 339
110 367
110 371
110 385
110 404
110 417
110 449
110 454
110 469
110 491
110 591
110 596
110 615
110 675
110 710
110 739
110 752
110 775
110 790
110 810
110 904
110 981
111 116
111 127
111 160
111 202
111 262
111 284
111 395
111 408
111 443
111 444
111 495
111 535
111 548
111 551
111 554
111 619
111 621
111 710
111 766
111 769
111 784
111 878
111 953
112 138
112 142
112 198
112 217
112 244
112 281
112 283
112 289
112 316
112 332
112 354
112 382
112 461
112 480
112 502
112 517
112 549
112 568
112 572
112 581
112 704
112 722
112 752
112 762
112 769
112 797
112 811
112 817
112 887
112 893
112 926
112 948
113 127
113 137
113 156
113 178
113 188
113 192
113 195
113 196
113 201
113 212
113 236
113 275
113 333
113 383
113 386
113 391
113 398
113 401
113 408
113 462
113 463
113 472
113 484
113 492
113 497
113 527
113 533
113 547
113 593
113 604
113 675
113 719
113 751
113 757
113 762
113 771
113 791
113 794
113 827
113 849
113 879
113 919
113 932
113 944
114 116
114 161
114 173
114 187
114 199
114 225
114 266
114 293
114 295
114 345
114 369
114 405
114 447
114 462
114 477
114 486
114 491
114 508
114 515
114 554
114 562
114 569
114 611
114 619
114 710
114 756
114 794
114 797
114 812
114 821
114 830
114 839
114 843
114 859
114 881
114 885
114 898
114 925
114 926
114 935
114 996
115 135
115 146
115 153
115 179
115 187
115 193
115 200
115 202
115 205
115 237
115 253
115 277
115 294
115 308
115 315
115 351
115 355
115 417
115 420
115 453
115 466
115 493
115 592
115 594
115 596
115 619
115 625
115 633
115 676
115 713
115 782
115 789
115 799
115 847
115 854
115 863
115 911
115 959
115 987
116 129
116 195
116 212
116 214
116 253
116 271
116 284
116 308
116 318
116 351
116 425
116 475
116 483
116 530
116 535
116 547
116 555
116 568
116 608
116 636
116 747
116 800
116 814
116 831
116 842
116 874
116 875
116 886
116 942
116 944
116 947
116 963
116 973
117 148
117 162
117 164
117 184
117 241
117 260
117 275
117 280
117 301
117 311
117 334
117 336
117 374
117 395
117 417
117 509
117 521
117 586
117 646
117 656
117 693
117 694
117 699
117 712
117 776
117 782
117 795
117 807
117 822
117 847
117 869
117 882
117 883
117 939
117 977
117 997
118 202
118 290
118 308
118 421
118 442
118 451
118 466
118 502
118 523
118 532
118 543
118 597
118 617
118 636
118 675
118 741
118 778
118 784
118 793
118 817
118 859
118 865
118 904
118 931
118 952
118 960
118 988
118 997
119 155
119 228
119 236
119 248
119 352
119 425
119 436
119 478
119 630
119 632
119 676
119 684
119 729
119 737
119 772
119 858
119 864
119 946
119 954
119 956
119 980
119 986
120 122
120 152
120 161
120 166
120 193
120 248
120 281
120 285
120 304
120 312
120 346
120 365
120 375
120 405
120 436
120 437
120 465
120 525
120 538
120 560
120 580
120 595
120 625
120 635
120 742
120 753
120 828
120 868
120 894
120 905
120 949
120 961
120 975
120 985
121 140
121 208
121 238
121 262
121 292
121 325
121 361
121 368
121 376
121 390
121 415
121 459
121 482
121 505
121 534
121 538
121 564
121 636
121 646
121 651
121 655
121 671
121 703
121 767
121 796
121 803
121 847
121 947
121 957
121 962
122 131
122 142
122 148
122 209
122 227
122 267
122 290
122 298
122 337
122 398
122 417
122 442
122 453
122 475
122 496
122 553
122 564
122 567
122 593
122 630
122 644
122 684
122 700
122 723
122 728
122 733
122 767
122 790
122 796
122 816
122 826
122 858
122 872
122 876
122 920
122 984
122 986
123 142
123 154
123 161
123 162
123 188
123 209
123 244
123 311
123 348
123 405
123 436
123 484
123 485
123 507
123 512
123 525
123 550
123 555
123 582
123 601
123 633
123 635
123 684
123 698
123 739
123 741
123 754
123 784
123 947
123 960
124 133
124 141
124 173
124 189
124 261
124 355
124 357
124 405
124 417
124 418
124 443
124 457
124 594
124 615
124 631
124 641
124 714
124 718
124 725
124 728
124 820
124 830
124 851
124 869
124 888
124 891
124 908
124 941
124 956
124 965
124 982
125 134
125 163
125 218
125 230
125 274
125 277
125 356
125 386
125 412
125 429
125 500
125 515
125 519
125 541
125 601
125 607
125 616
125 675
125 710
125 746
125 786
125 800
125 821
125 832
125 849
125 902
125 904
125 926
125 986
125 993
126 154
126 197
126 202
126 213
126 222
126 232
126 294
126 308
126 355
126 389
126 394
126 518
126 563
126 610
126 642
126 653
126 676
126 707
126 735
126 793
126 798
126 828
126 856
126 878
126 922
126 957
126 960
126 977
127 143
127 163
127 165
127 170
127 204
127 283
127 341
127 353
127 426
127 489
127 517
127 535
127 557
127 568
127 578
127 589
127 595
127 672
127 691
127 737
127 744
127 766
127 884
127 911
127 923
127 925
127 932
128 138
128 147
128 193
128 216
128 233
128 241
128 303
128 306
128 312
128 333
128 408
128 444
128 484
128 519
128 558
128 573
128 589
128 638
128 679
128 684
128 686
128 714
128 730
128 733
128 745
128 781
128 783
128 805
128 884
128 899
128 904
128 991
129 195
129 216
129 234
129 241
129 248
129 256
129 315
129 363
129 434
129 442
129 567
129 578
129 601
129 623
129 626
129 636
129 645
129 675
129 711
129 736
129 738
129 747
129 767
129 832
129 853
129 881
129 892
129 905
129 908
129 939
129 945
129 965
130 131
130 169
130 209
130 258
130 263
130 279
130 281
130 284
130 430
130 503
130 510
130 524
130 554
130 565
130 588
130 612
130 645
130 669
130 674
130 682
130 688
130 700
130 734
130 851
130 878
130 887
130 923
130 931
130 959
130 973
130 978
130 992
131 180
131 191
131 222
131 230
131 238
131 253
131 296
131 336
131 337
131 377
131 388
131 411
131 424
131 429
131 458
131 472
131 493
131 554
131 600
131 665
131 670
131 679
131 682
131 687
131 711
131 722
131 738
131 748
131 784
131 807
131 845
131 923
131 942
131 973
131 986
132 146
132 219
132 231
132 299
132 354
132 411
132 416
132 426
132 482
132 578
132 585
132 603
132 653
132 733
132 746
132 771
132 806
132 816
132 820
132 864
132 881
132 951
133 152
133 157
133 168
133 259
133 305
133 308
133 413
133 420
133 443
133 453
133 474
133 483
133 519
133 544
133 547
133 567
133 574
133 599
133 606
133 608
133 651
133 655
133 665
133 701
133 702
133 720
133 763
133 768
133 774
133 783
133 800
133 805
133 825
133 836
133 853
133 874
133 877
133 881
133 890
133 904
133 924
133 935
133 941
133 979
133 982
133 983
133 999
134 174
134 180
134 271
134 280
134 306
134 314
134 316
134 332
134 337
134 361
134 366
134 410
134 508
134 532
134 554
134 559
134 596
134 601
134 644
134 654
134 735
134 748
134 749
134 772
134 779
134 817
134 826
134 838
134 841
134 843
134 867
134 916
134 954
134 959
134 985
135 173
135 187
135 197
135 247
135 278
135 330
135 334
135 356
135 447
135 459
135 533
135 553
135 556
135 607
135 641
135 663
135 665
135 779
135 801
135 804
135 809
135 813
135 830
135 867
135 872
135 921
135 963
135 983
135 996
136 154
136 166
136 172
136 196
136 264
136 332
136 364
136 423
136 424
136 473
136 494
136 502
136 618
136 623
136 641
136 676
136 698
136 707
136 710
136 765
136 802
136 853
136 867
136 874
136 898
136 907
136 924
136 982
136 991
137 159
137 166
137 231
137 270
137 275
137 318
137 386
137 394
137 413
137 456
137 463
137 494
137 497
137 498
137 513
137 522
137 540
137 542
137 547
137 549
137 589
137 609
137 638
137 687
137 698
137 714
137 727
137 747
137 796
137 846
137 851
137 871
137 893
137 940
138 161
138 248
138 253
138 330
138 337
138 375
138 424
138 596
138 664
138 676
138 713
138 745
138 747
138 750
138 751
138 776
138 792
138 811
138 858
138 880
138 915
138 988
139 152
139 176
139 180
139 186
139 205
139 214
139 216
139 224
139 245
139 320
139 323
139 342
139 392
139 401
139 418
139 420
139 425
139 481
139 484
139 519
139 524
139 538
139 570
139 576
139 609
139 627
139 713
139 719
139 725
139 727
139 736
139 769
139 811
139 829
139 840
139 849
139 862
139 886
139 891
139 956
140 170
140 184
140 205
140 242
140 254
140 357
140 370
140 377
140 440
140 451
140 471
140 475
140 512
140 677
140 698
140 710
140 728
140 800
140 828
140 847
140 852
140 887
140 902
140 945
141 158
141 198
141 207
141 226
141 231
141 232
141 237
141 257
141 275
141 285
141 304
141 324
141 403
141 432
141 445
141 481
141 563
141 576
141 580
141 585
141 624
141 643
141 724
141 735
141 746
141 749
141 789
141 807
141 844
141 855
141 856
141 875
141 902
141 969
141 976
141 990
142 150
142 163
142 210
142 257
142 290
142 298
142 320
142 325
142 329
142 340
142 346
142 353
142 370
142 426
142 468
142 483
142 488
142 514
142 516
142 528
142 603
142 610
142 662
142 681
142 718
142 731
142 782
142 789
142 793
142 805
142 809
142 822
142 832
142 839
142 871
142 875
142 900
142 952
142 958
142 973
143 165
143 215
143 230
143 260
143 282
143 356
143 386
143 421
143 428
143 444
143 446
143 463
143 524
143 634
143 639
143 685
143 686
143 696
143 731
143 741
143 794
143 815
143 833
143 854
143 898
143 944
143 975
143 979
143 994
144 171
144 172
144 178
144 207
144 226
144 246
144 260
144 304
144 306
144 361
144 363
144 396
144 436
144 489
144 508
144 532
144 551
144 602
144 648
144 660
144 677
144 800
144 834
144 850
144 868
144 875
144 897
144 908
144 942
144 947
144 989
145 187
145 205
145 237
145 245
145 251
145 295
145 306
145 311
145 337
145 341
145 343
145 396
145 397
145 400
145 441
145 458
145 468
145 480
145 496
145 533
145 612
145 668
145 710
145 719
145 786
145 798
145 803
145 811
145 821
145 833
145 870
145 919
145 967
145 998
146 196
146 227
146 240
146 307
146 321
146 327
146 328
146 410
146 467
146 470
146 519
146 536
146 559
146 610
146 635
146 681
146 704
146 728
146 730
146 738
146 783
146 795
146 803
146 805
146 812
146 830
146 842
146 859
146 876
146 911
146 933
147 198
147 208
147 253
147 294
147 311
147 327
147 359
147 398
147 403
147 492
147 498
147 513
147 564
147 622
147 642
147 657
147 664
147 704
147 718
147 729
147 733
147 734
147 771
147 801
147 855
147 861
147 919
147 943
147 966
147 967
147 982
148 170
148 173
148 207
148 210
148 221
148 267
148 387
148 418
148 420
148 449
148 458
148 474
148 519
148 625
148 657
148 717
148 719
148 736
148 774
148 800
148 817
148 818
148 822
148 899
148 914
148 916
148 922
149 159
149 161
149 211
149 228
149 248
149 271
149 296
149 307
149 336
149 373
149 455
149 562
149 568
149 622
149 643
149 647
149 685
149 695
149 700
149 701
149 729
149 735
149 792
149 836
149 902
149 970
149 978
149 979
149 983
150 217
150 220
150 252
150 286
150 292
150 295
150 359
150 383
150 405
150 484
150 485
150 495
150 502
150 538
150 551
150 562
150 566
150 579
150 580
150 656
150 684
150 767
150 798
150 898
150 904
150 956
150 994
151 159
151 190
151 216
151 236
151 250
151 267
151 271
151 273
151 411
151 437
151 439
151 452
151 468
151 474
151 479
151 513
151 538
151 542
151 545
151 596
151 638
151 669
151 679
151 789
151 811
151 832
151 876
151 968
152 193
152 233
152 238
152 249
152 280
152 285
152 390
152 431
152 439
152 459
152 469
152 487
152 502
152 509
152 526
152 577
152 607
152 614
152 633
152 635
152 644
152 716
152 722
152 775
152 776
152 787
152 819
152 831
152 869
152 898
152 969
152 970
152 989
153 169
153 174
153 265
153 266
153 299
153 307
153 311
153 330
153 517
153 527
153 557
153 592
153 622
153 717
153 734
153 736
153 748
153 824
153 844
153 928
153 938
153 949
153 961
153 965
153 982
153 987
154 199
154 203
154 224
154 290
154 297
154 313
154 320
154 321
154 345
154 361
154 403
154 409
154 423
154 431
154 460
154 529
154 599
154 671
154 686
154 701
154 710
154 724
154 742
154 748
154 753
154 756
154 786
154 832
154 876
154 881
154 915
154 923
154 938
154 972
154 973
155 197
155 200
155 228
155 244
155 258
155 261
155 283
155 314
155 362
155 393
155 502
155 514
155 575
155 589
155 647
155 687
155 739
155 747
155 756
155 758
155 796
155 820
155 850
155 881
155 905
155 925
155 940
155 953
155 958
156 292
156 316
156 323
156 328
156 343
156 401
156 403
156 441
156 447
156 514
156 546
156 549
156 559
156 651
156 697
156 710
156 732
156 737
156 805
156 835
156 923
156 973
157 158
157 169
157 173
157 219
157 221
157 283
157 298
157 313
157 361
157 363
157 403
157 508
157 516
157 528
157 531
157 536
157 544
157 553
157 598
157 611
157 625
157 648
157 678
157 720
157 724
157 756
157 830
157 840
157 848
157 928
157 970
157 988
158 177
158 199
158 231
158 265
158 280
158 347
158 352
158 412
158 502
158 513
158 519
158 537
158 573
158 577
158 641
158 645
158 664
158 744
158 753
158 762
158 809
158 810
158 847
158 885
158 927
158 933
159 212
159 243
159 255
159 257
159 259
159 282
159 301
159 308
159 339
159 413
159 476
159 511
159 512
159 551
159 636
159 642
159 670
159 709
159 712
159 724
159 743
159 753
159 754
159 794
159 861
159 919
159 963
159 989
159 997
160 191
160 258
160 284
160 290
160 301
160 374
160 402
160 434
160 439
160 453
160 472
160 493
160 501
160 503
160 524
160 527
160 530
160 531
160 545
160 582
160 592
160 610
160 611
160 633
160 665
160 681
160 695
160 733
160 741
160 758
160 786
160 812
160 837
160 865
160 979
161 164
161 174
161 191
161 232
161 251
161 285
161 299
161 311
161 343
161 385
161 439
161 444
161 449
161 455
161 478
161 540
161 583
161 595
161 694
161 777
161 786
161 830
161 850
161 868
161 913
161 918
161 950
161 974
161 989
161 998
162 186
162 190
162 203
162 227
162 293
162 336
162 360
162 416
162 423
162 460
162 470
162 478
162 495
162 543
162 548
162 589
162 673
162 677
162 686
162 756
162 795
162 818
162 825
162 830
162 832
162 857
162 871
162 941
162 994
163 180
163 208
163 235
163 262
163 318
163 328
163 334
163 349
163 375
163 380
163 390
163 396
163 410
163 438
163 441
163 443
163 471
163 501
163 506
163 575
163 590
163 593
163 598
163 632
163 646
163 707
163 763
163 785
163 788
163 805
163 831
163 833
163 835
163 894
163 912
163 977
163 982
163 993
164 165
164 218
164 222
164 238
164 243
164 244
164 254
164 267
164 300
164 302
164 446
164 500
164 537
164 570
164 576
164 600
164 653
164 671
164 730
164 754
164 759
164 782
164 831
164 833
164 918
164 938
164 939
164 943
164 944
164 960
165 176
165 240
165 243
165 246
165 268
165 295
165 310
165 314
165 378
165 404
165 475
165 515
165 538
165 544
165 554
165 613
165 656
165 683
165 728
165 784
165 850
165 865
165 872
166 175
166 177
166 180
166 202
166 221
166 239
166 246
166 247
166 270
166 298
166 300
166 323
166 389
166 397
166 406
166 417
166 549
166 552
166 581
166 589
166 595
166 604
166 618
166 632
166 676
166 757
166 782
166 791
166 815
166 866
166 890
166 921
166 938
166 956
166 960
166 986
167 262
167 317
167 368
167 378
167 400
167 477
167 545
167 562
167 575
167 576
167 600
167 603
167 615
167 661
167 783
167 792
167 795
167 827
167 849
167 941
167 984
168 173
168 214
168 235
168 273
168 297
168 323
168 357
168 367
168 405
168 414
168 441
168 477
168 508
168 516
168 520
168 543
168 555
168 634
168 639
168 648
168 668
168 710
168 712
168 752
168 762
168 776
168 786
168 789
168 804
168 841
168 849
168 858
168 871
168 872
168 890
168 915
168 931
168 943
169 195
169 210
169 216
169 249
169 318
169 331
169 339
169 344
169 422
169 534
169 633
169 648
169 652
169 713
169 719
169 744
169 757
169 767
169 777
169 796
169 797
169 799
169 804
169 809
169 818
169 819
169 825
169 854
169 857
169 866
169 882
169 905
169 909
169 918
169 930
169 945
169 948
169 956
169 975
169 980
169 984
170 193
170 194
170 237
170 284
170 347
170 396
170 420
170 447
170 448
170 478
170 546
170 561
170 585
170 605
170 667
170 676
170 710
170 714
170 749
170 768
170 813
170 847
170 856
170 857
170 877
170 879
170 894
170 957
170 979
171 174
171 240
171 255
171 264
171 290
171 292
171 337
171 377
171 411
171 417
171 503
171 513
171 535
171 582
171 624
171 630
171 634
171 657
171 659
171 677
171 696
171 720
171 732
171 751
171 797
171 832
171 856
171 864
171 885
171 887
171 916
171 920
171 938
171 952
171 956
172 190
172 193
172 286
172 297
172 310
172 349
172 410
172 416
172 422
172 425
172 446
172 462
172 510
172 513
172 531
172 566
172 576
172 619
172 707
172 756
172 826
172 890
172 895
172 922
172 960
172 968
172 985
173 181
173 222
173 232
173 247
173 282
173 302
173 318
173 353
173 400
173 408
173 442
173 476
173 493
173 504
173 518
173 523
173 545
173 615
173 655
173 672
173 786
173 791
173 822
173 853
173 883
173 901
173 905
173 923
173 983
174 195
174 211
174 251
174 268
174 285
174 322
174 352
174 356
174 377
174 406
174 438
174 494
174 495
174 516
174 567
174 587
174 600
174 601
174 666
174 835
174 853
174 877
174 917
174 923
174 938
174 946
174 988
175 188
175 193
175 262
175 318
175 329
175 344
175 391
175 412
175 413
175 433
175 438
175 452
175 461
175 513
175 547
175 559
175 561
175 634
175 667
175 668
175 713
175 733
175 754
175 756
175 813
175 820
175 920
175 928
175 997
176 181
176 188
176 204
176 233
176 246
176 276
176 286
176 327
176 330
176 393
176 432
176 518
176 520
176 551
176 598
176 651
176 680
176 715
176 732
176 733
176 735
176 749
176 790
176 797
176 801
176 812
176 859
176 863
176 877
176 895
176 944
176 952
176 988
177 199
177 203
177 294
177 343
177 346
177 368
177 405
177 421
177 500
177 525
177 541
177 548
177 593
177 612
177 616
177 618
177 627
177 634
177 705
177 771
177 799
177 822
177 846
177 872
177 884
177 891
177 901
177 909
177 920
177 925
177 949
177 970
177 991
178 188
178 196
178 207
178 281
178 283
178 330
178 331
178 380
178 387
178 399
178 413
178 485
178 546
178 587
178 635
178 730
178 733
178 820
178 943
178 968
179 201
179 203
179 213
179 232
179 245
179 301
179 325
179 336
179 342
179 365
179 403
179 445
179 452
179 455
179 480
179 527
179 548
179 566
179 587
179 635
179 708
179 726
179 751
179 784
179 876
179 888
179 900
179 926
179 948
179 955
179 973
179 974
180 240
180 365
180 474
180 542
180 559
180 605
180 620
180 635
180 655
180 690
180 714
180 792
180 826
180 850
180 882
180 905
180 917
180 931
180 932
180 957
180 991
180 997
181 205
181 206
181 259
181 287
181 313
181 320
181 335
181 353
181 401
181 458
181 511
181 540
181 589
181 644
181 650
181 664
181 681
181 733
181 797
181 859
181 884
181 908
181 909
181 948
181 989
181 996
182 186
182 207
182 218
182 256
182 267
182 284
182 294
182 361
182 414
182 425
182 479
182 496
182 539
182 551
182 585
182 599
182 612
182 693
182 694
182 714
182 738
182 771
182 782
182 805
182 822
182 840
182 855
182 903
182 906
182 918
182 941
182 980
183 219
183 227
183 235
183 270
183 275
183 286
183 289
183 317
183 348
183 459
183 498
183 509
183 558
183 566
183 570
183 576
183 597
183 600
183 619
183 688
183 700
183 712
183 716
183 720
183 725
183 727
183 774
183 791
183 803
183 832
183 838
183 911
183 931
183 943
183 946
183 947
183 961
183 976
184 223
184 296
184 313
184 315
184 331
184 339
184 344
184 356
184 377
184 379
184 393
184 414
184 447
184 451
184 456
184 474
184 493
184 495
184 501
184 524
184 579
184 596
184 610
184 634
184 688
184 690
184 698
184 707
184 714
184 781
184 812
184 853
184 894
184 925
184 927
184 974
185 198
185 230
185 235
185 236
185 237
185 277
185 297
185 312
185 314
185 357
185 364
185 388
185 390
185 403
185 415
185 481
185 562
185 565
185 583
185 653
185 672
185 683
185 684
185 708
185 739
185 755
185 813
185 863
185 876
185 895
185 949
185 958
185 964
185 985
185 998
186 193
186 199
186 288
186 326
186 352
186 371
186 404
186 408
186 422
186 461
186 467
186 539
186 543
186 551
186 571
186 652
186 655
186 677
186 689
186 695
186 708
186 712
186 739
186 813
186 844
186 861
186 862
186 870
186 879
186 903
186 971
186 982
187 194
187 201
187 206
187 221
187 233
187 242
187 364
187 420
187 443
187 497
187 531
187 563
187 573
187 609
187 654
187 670
187 729
187 746
187 781
187 791
187 792
187 801
187 841
187 852
187 892
187 984
187 991
187 997
188 238
188 240
188 260
188 301
188 333
188 354
188 355
188 357
188 379
188 381
188 388
188 407
188 433
188 466
188 479
188 498
188 529
188 564
188 580
188 591
188 649
188 675
188 694
188 724
188 743
188 776
188 788
188 790
188 796
188 799
188 811
188 832
188 836
188 899
188 914
188 951
188 953
188 964
188 971
188 984
189 243
189 314
189 339
189 425
189 448
189 537
189 564
189 597
189 598
189 716
189 845
189 885
189 895
189 918
189 923
189 954
189 983
189 992
190 204
190 206
190 207
190 210
190 283
190 291
190 300
190 301
190 332
190 386
190 429
190 431
190 444
190 463
190 481
190 515
190 540
190 553
190 604
190 607
190 609
190 631
190 660
190 689
190 695
190 697
190 700
190 701
190 711
190 714
190 765
190 769
190 820
190 824
190 832
190 833
190 837
190 859
190 924
190 973
191 226
191 258
191 275
191 320
191 335
191 510
191 524
191 528
191 546
191 555
191 636
191 678
191 704
191 728
191 730
191 731
191 740
191 760
191 768
191 817
191 851
191 854
191 860
191 873
191 884
191 898
191 932
191 936
192 245
192 270
192 279
192 301
192 322
192 339
192 373
192 379
192 391
192 405
192 410
192 473
192 489
192 490
192 510
192 529
192 558
192 612
192 618
192 649
192 653
192 669
192 706
192 725
192 742
192 776
192 783
192 803
192 816
192 863
192 865
192 900
192 904
192 972
192 973
193 234
193 290
193 296
193 321
193 361
193 376
193 386
193 426
193 471
193 480
193 523
193 524
193 545
193 551
193 556
193 559
193 562
193 631
193 666
193 685
193 757
193 780
193 796
194 249
194 278
194 286
194 396
194 409
194 416
194 442
194 458
194 475
194 494
194 502
194 507
194 631
194 661
194 662
194 670
194 702
194 769
194 773
194 782
194 831
194 870
194 914
194 945
194 965
194 982
194 995
195 204
195 247
195 267
195 299
195 302
195 314
195 320
195 324
195 353
195 369
195 382
195 394
195 442
195 525
195 535
195 549
195 589
195 611
195 616
195 692
195 720
195 832
195 839
195 898
195 910
195 980
196 252
196 278
196 296
196 317
196 334
196 359
196 362
196 366
196 379
196 386
196 411
196 422
196 452
196 490
196 502
196 597
196 631
196 654
196 669
196 673
196 683
196 734
196 742
196 775
196 787
196 790
196 793
196 843
196 854
196 895
196 938
196 995
196 998
197 204
197 223
197 273
197 298
197 301
197 330
197 332
197 382
197 396
197 432
197 455
197 466
197 527
197 575
197 594
197 598
197 644
197 654
197 693
197 718
197 727
197 829
197 859
197 880
197 954
197 956
197 958
197 999
198 217
198 226
198 231
198 234
198 245
198 303
198 322
198 330
198 341
198 357
198 425
198 433
198 446
198 487
198 498
198 525
198 534
198 564
198 593
198 599
198 651
198 697
198 730
198 768
198 770
198 802
198 811
198 834
198 844
198 862
198 885
198 889
198 891
198 922
198 941
199 338
199 343
199 378
199 414
199 451
199 461
199 530
199 576
199 611
199 633
199 637
199 646
199 684
199 711
199 750
199 773
199 835
199 853
199 863
199 875
199 896
199 925
199 934
200 201
200 232
200 249
200 258
200 270
200 288
200 368
200 379
200 386
200 405
200 407
200 433
200 442
200 449
200 452
200 464
200 526
200 591
200 602
200 644
200 655
200 702
200 714
200 778
200 802
200 805
200 813
200 828
200 839
200 868
200 901
200 903
200 925
200 943
200 958
201 203
201 247
201 265
201 293
201 407
201 427
201 470
201 513
201 627
201 691
201 720
201 727
201 763
201 772
201 809
201 832
201 855
201 856
201 869
201 876
201 901
201 922
201 933
202 222
202 225
202 334
202 351
202 363
202 406
202 416
202 478
202 484
202 490
202 516
202 602
202 675
202 711
202 806
202 809
202 813
202 823
202 829
202 843
202 858
202 873
202 874
202 884
202 888
202 919
203 205
203 227
203 242
203 265
203 280
203 333
203 356
203 360
203 388
203 389
203 407
203 429
203 434
203 437
203 444
203 456
203 464
203 490
203 510
203 575
203 602
203 609
203 622
203 624
203 631
203 732
203 748
203 768
203 773
203 779
203 782
203 791
203 797
203 800
203 830
203 833
203 836
203 911
203 921
203 936
203 989
204 260
204 287
204 289
204 299
204 312
204 315
204 381
204 408
204 421
204 422
204 468
204 471
204 476
204 479
204 492
204 520
204 533
204 562
204 588
204 598
204 599
204 603
204 624
204 748
204 757
204 762
204 771
204 777
204 804
204 819
204 859
204 875
204 876
204 886
204 901
204 903
204 920
204 928
204 939
205 212
205 232
205 288
205 307
205 322
205 352
205 367
205 392
205 402
205 487
205 498
205 500
205 528
205 553
205 576
205 595
205 603
205 604
205 619
205 643
205 646
205 651
205 685
205 701
205 789
205 795
205 802
205 861
205 863
205 890
205 943
205 945
205 973
206 225
206 264
206 313
206 342
206 353
206 369
206 395
206 403
206 453
206 460
206 536
206 553
206 602
206 632
206 660
206 759
206 782
206 797
206 800
206 802
206 805
206 814
206 848
206 861
206 862
206 924
206 929
206 941
207 211
207 217
207 245
207 249
207 258
207 385
207 388
207 440
207 441
207 497
207 527
207 537
207 540
207 562
207 592
207 606
207 671
207 681
207 728
207 775
207 776
207 778
207 804
207 843
207 846
207 892
207 923
207 924
207 946
207 961
207 973
207 983
208 224
208 234
208 323
208 330
208 352
208 358
208 390
208 442
208 453
208 476
208 539
208 600
208 619
208 672
208 676
208 682
208 727
208 750
208 759
208 760
208 769
208 820
208 838
208 870
208 892
208 902
208 917
208 964
208 977
209 257
209 344
209 386
209 405
209 452
209 469
209 537
209 558
209 568
209 600
209 617
209 629
209 745
209 765
209 778
209 826
209 841
209 871
209 898
209 921
209 933
209 948
210 221
210 260
210 268
210 278
210 304
210 337
210 349
210 350
210 395
210 397
210 423
210 434
210 438
210 439
210 459
210 505
210 507
210 546
210 577
210 591
210 620
210 622
210 635
210 636
210 781
210 803
210 806
210 935
210 941
211 267
211 345
211 354
211 360
211 408
211 411
211 432
211 436
211 447
211 462
211 517
211 523
211 531
211 571
211 615
211 639
211 657
211 675
211 731
211 745
211 910
211 945
211 956
211 958
212 216
212 222
212 223
212 229
212 278
212 392
212 428
212 441
212 475
212 503
212 514
212 515
212 520
212 521
212 522
212 530
212 545
212 562
212 569
212 581
212 593
212 613
212 637
212 648
212 650
212 721
212 772
212 801
212 818
212 842
212 932
212 965
212 986
212 989
213 216
213 253
213 304
213 306
213 380
213 442
213 478
213 481
213 576
213 610
213 634
213 640
213 716
213 722
213 727
213 840
213 850
213 906
213 936
213 979
213 981
214 216
214 256
214 257
214 275
214 305
214 355
214 370
214 374
214 381
214 432
214 440
214 447
214 469
214 484
214 499
214 513
214 520
214 542
214 560
214 565
214 586
214 594
214 599
214 609
214 622
214 637
214 646
214 676
214 684
214 696
214 707
214 715
214 738
214 776
214 781
214 821
214 837
214 875
214 890
214 906
214 927
214 979
214 987
215 241
215 285
215 296
215 301
215 304
215 340
215 347
215 351
215 372
215 420
215 430
215 453
215 458
215 461
215 462
215 520
215 616
215 632
215 634
215 675
215 728
215 743
215 776
215 789
215 899
215 912
215 928
215 990
215 993
216 249
216 253
216 440
216 456
216 470
216 509
216 520
216 652
216 663
216 671
216 694
216 697
216 739
216 750
216 787
216 790
216 832
216 882
216 884
216 885
216 963
216 967
216 977
217 229
217 236
217 246
217 286
217 306
217 307
217 336
217 337
217 364
217 398
217 407
217 419
217 450
217 472
217 476
217 522
217 546
217 609
217 634
217 654
217 664
217 679
217 687
217 718
217 772
217 813
217 880
217 937
217 986
218 251
218 264
218 266
218 298
218 307
218 410
218 432
218 465
218 492
218 504
218 538
218 549
218 569
218 580
218 710
218 712
218 714
218 800
218 826
218 838
218 877
218 933
218 941
218 945
218 962
219 225
219 230
219 241
219 299
219 321
219 326
219 336
219 337
219 358
219 374
219 390
219 391
219 428
219 458
219 469
219 470
219 495
219 519
219 533
219 578
219 590
219 594
219 595
219 603
219 658
219 699
219 716
219 768
219 792
219 795
219 931
219 987
220 221
220 225
220 255
220 270
220 290
220 293
220 365
220 367
220 439
220 447
220 464
220 470
220 500
220 515
220 516
220 518
220 525
220 542
220 545
220 615
220 619
220 651
220 700
220 720
220 744
220 775
220 804
220 826
220 848
220 851
220 857
220 924
220 935
220 988
221 247
221 267
221 325
221 365
221 372
221 397
221 450
221 461
221 469
221 482
221 505
221 524
221 554
221 601
221 640
221 643
221 678
221 695
221 726
221 829
221 853
221 944
221 951
221 953
221 989
222 243
222 333
222 356
222 436
222 446
222 462
222 491
222 523
222 545
222 653
222 793
222 827
222 877
222 878
222 957
222 965
223 227
223 240
223 244
223 246
223 295
223 315
223 319
223 350
223 355
223 424
223 490
223 518
223 533
223 534
223 556
223 575
223 582
223 587
223 590
223 611
223 685
223 705
223 759
223 779
223 863
223 881
223 892
223 901
223 931
223 932
223 958
223 965
224 225
224 246
224 250
224 262
224 274
224 297
224 332
224 333
224 381
224 386
224 388
224 429
224 468
224 505
224 515
224 601
224 625
224 638
224 641
224 674
224 776
224 794
224 829
224 844
224 874
224 913
224 947
225 229
225 236
225 291
225 314
225 322
225 359
225 360
225 366
225 370
225 375
225 399
225 593
225 602
225 643
225 682
225 705
225 738
225 785
225 796
225 838
225 874
225 916
226 233
226 252
226 323
226 367
226 376
226 415
226 484
226 497
226 521
226 540
226 543
226 569
226 574
226 663
226 668
226 676
226 709
226 723
226 761
226 762
226 771
226 834
226 841
226 843
226 846
226 879
226 938
226 953
226 963
226 977
227 240
227 252
227 267
227 302
227 306
227 317
227 385
227 414
227 441
227 534
227 547
227 612
227 701
227 759
227 765
227 877
227 905
227 924
227 930
227 946
227 953
227 955
227 962
227 976
228 246
228 276
228 296
228 315
228 330
228 390
228 401
228 427
228 524
228 544
228 548
228 563
228 573
228 610
228 636
228 692
228 696
228 706
228 717
228 770
228 777
228 803
228 833
228 838
228 852
228 870
228 877
228 878
228 945
228 962
229 275
229 281
229 330
229 373
229 378
229 380
229 388
229 405
229 426
229 445
229 484
229 500
229 561
229 569
229 586
229 645
229 650
229 687
229 720
229 771
229 776
229 778
229 800
229 814
229 829
229 839
229 844
229 861
229 905
229 960
230 243
230 273
230 305
230 313
230 361
230 404
230 407
230 553
230 556
230 587
230 625
230 642
230 645
230 656
230 661
230 669
230 717
230 730
230 773
230 806
230 819
230 857
230 878
230 906
230 918
230 931
230 938
231 239
231 244
231 264
231 298
231 352
231 366
231 378
231 380
231 384
231 401
231 455
231 460
231 467
231 476
231 479
231 491
231 525
231 548
231 552
231 645
231 726
231 743
231 767
231 788
231 793
231 798
231 801
231 816
231 903
231 912
231 942
231 954
231 977
231 988
231 998
232 277
232 285
232 370
232 419
232 427
232 483
232 586
232 599
232 626
232 663
232 670
232 693
232 740
232 743
232 747
232 749
232 762
232 834
232 855
232 923
232 926
232 960
233 249
233 291
233 301
233 336
233 412
233 427
233 435
233 509
233 551
233 615
233 637
233 678
233 724
233 756
233 774
233 811
233 830
233 835
233 837
233 841
233 903
233 966
233 978
233 985
233 987
234 272
234 300
234 365
234 369
234 372
234 426
234 449
234 456
234 517
234 519
234 573
234 575
234 605
234 629
234 651
234 660
234 671
234 680
234 708
234 780
234 845
234 846
235 263
235 276
235 329
235 464
235 467
235 496
235 555
235 573
235 582
235 617
235 620
235 623
235 655
235 672
235 689
235 695
235 718
235 749
235 774
235 791
235 808
235 822
235 841
235 883
235 890
235 893
235 926
235 962
236 272
236 273
236 319
236 338
236 340
236 356
236 419
236 424
236 450
236 477
236 482
236 500
236 529
236 531
236 672
236 692
236 753
236 757
236 815
236 897
236 917
236 945
236 961
237 271
237 278
237 299
237 313
237 350
237 377
237 392
237 404
237 423
237 458
237 462
237 483
237 490
237 495
237 552
237 557
237 581
237 669
237 751
237 791
237 807
237 809
237 840
237 878
237 926
237 951
238 339
238 385
238 404
238 458
238 464
238 494
238 498
238 592
238 600
238 612
238 631
238 632
238 659
238 675
238 711
238 720
238 749
238 835
238 893
238 894
238 936
238 956
238 972
238 975
238 994
239 262
239 273
239 325
239 335
239 347
239 373
239 379
239 441
239 472
239 499
239 515
239 563
239 605
239 614
239 637
239 669
239 708
239 717
239 735
239 739
239 747
239 748
239 779
239 788
239 798
239 801
239 817
239 827
239 867
239 869
239 903
239 920
239 964
240 248
240 279
240 300
240 331
240 334
240 347
240 349
240 367
240 507
240 511
240 521
240 551
240 643
240 648
240 662
240 677
240 678
240 682
240 750
240 763
240 779
240 783
240 795
240 817
240 880
240 912
241 287
241 316
241 350
241 386
241 395
241 427
241 467
241 474
241 481
241 497
241 532
241 534
241 573
241 644
241 669
241 680
241 687
241 763
241 767
241 774
241 785
241 823
241 837
241 854
241 856
241 873
241 880
241 934
241 967
242 252
242 278
242 341
242 367
242 383
242 392
242 396
242 435
242 485
242 524
242 529
242 545
242 546
242 547
242 579
242 584
242 592
242 594
242 627
242 651
242 702
242 715
242 731
242 733
242 844
242 875
242 906
242 930
242 934
242 937
242 941
242 978
242 991
243 264
243 278
243 286
243 304
243 315
243 317
243 321
243 324
243 326
243 354
243 373
243 382
243 418
243 422
243 443
243 484
243 487
243 516
243 517
243 519
243 524
243 556
243 575
243 657
243 662
243 703
243 759
243 769
243 778
243 789
243 862
243 891
243 905
244 262
244 263
244 295
244 311
244 379
244 412
244 472
244 571
244 591
244 610
244 628
244 647
244 660
244 678
244 702
244 727
244 734
244 735
244 748
244 776
244 777
244 797
244 827
244 846
244 906
244 907
244 951
244 963
245 249
245 251
245 294
245 302
245 331
245 347
245 371
245 378
245 405
245 413
245 427
245 429
245 469
245 471
245 491
245 578
245 586
245 587
245 617
245 630
245 641
245 649
245 665
245 727
245 762
245 844
245 879
245 884
245 994
246 249
246 295
246 353
246 386
246 437
246 484
246 494
246 525
246 550
246 559
246 585
246 588
246 633
246 662
246 671
246 676
246 679
246 693
246 731
246 744
246 754
246 770
246 779
246 857
246 859
246 866
246 895
246 920
246 967
246 968
246 982
246 994
246 997
247 303
247 331
247 338
247 354
247 429
247 461
247 474
247 484
247 491
247 512
247 531
247 560
247 565
247 570
247 585
247 610
247 637
247 658
247 682
247 686
247 688
247 735
247 772
247 817
247 824
247 828
247 831
247 892
247 912
247 962
247 982
248 252
248 270
248 403
248 411
248 417
248 452
248 481
248 507
248 582
248 676
248 740
248 840
248 859
248 866
248 935
248 942
248 950
249 270
249 295
249 365
249 440
249 452
249 462
249 503
249 584
249 593
249 642
249 656
249 677
249 707
249 815
249 842
249 851
249 854
249 901
249 935
249 953
249 979
250 260
250 281
250 291
250 313
250 314
250 345
250 347
250 354
250 361
250 364
250 375
250 376
250 426
250 451
250 460
250 467
250 510
250 689
250 690
250 696
250 732
250 752
250 793
250 799
250 833
250 838
250 839
250 845
250 927
250 940
250 948
250 974
251 255
251 315
251 318
251 345
251 348
251 349
251 376
251 422
251 462
251 525
251 535
251 550
251 606
251 620
251 621
251 644
251 653
251 672
251 674
251 743
251 750
251 760
251 771
251 819
251 821
251 832
251 858
251 865
251 909
251 924
251 925
251 979
251 998
252 288
252 321
252 349
252 396
252 412
252 427
252 433
252 449
252 475
252 526
252 553
252 575
252 608
252 610
252 622
252 696
252 701
252 703
252 707
252 757
252 766
252 780
252 808
252 824
252 891
252 912
252 914
252 948
252 984
253 275
253 287
253 342
253 382
253 390
253 394
253 468
253 482
253 523
253 600
253 660
253 678
253 710
253 728
253 748
253 804
253 814
253 844
253 859
253 932
253 995
254 345
254 349
254 361
254 377
254 383
254 421
254 566
254 597
254 600
254 616
254 623
254 625
254 691
254 701
254 756
254 757
254 774
254 791
254 801
254 823
254 834
254 835
254 928
254 935
254 939
254 972
254 973
255 280
255 303
255 330
255 361
255 362
255 413
255 422
255 470
255 477
255 487
255 490
255 531
255 601
255 637
255 638
255 718
255 721
255 731
255 790
255 836
255 868
255 871
255 947
256 369
256 380
256 398
256 402
256 433
256 449
256 486
256 525
256 541
256 542
256 550
256 615
256 627
256 637
256 641
256 675
256 685
256 689
256 702
256 754
256 825
256 911
256 950
256 957
257 273
257 275
257 276
257 324
257 328
257 346
257 399
257 402
257 426
257 448
257 477
257 493
257 517
257 519
257 530
257 559
257 633
257 639
257 661
257 687
257 725
257 732
257 748
257 767
257 786
257 790
257 808
257 832
257 833
257 835
257 862
257 871
257 939
257 960
258 259
258 269
258 334
258 340
258 343
258 370
258 382
258 461
258 466
258 471
258 482
258 505
258 517
258 524
258 605
258 610
258 629
258 641
258 663
258 772
258 776
258 780
258 814
258 822
258 853
258 855
258 866
258 918
258 939
258 972
258 997
259 269
259 274
259 277
259 297
259 328
259 377
259 472
259 513
259 529
259 538
259 582
259 667
259 671
259 690
259 693
259 709
259 719
259 723
259 739
259 746
259 751
259 835
259 846
259 859
259 878
259 879
259 921
259 936
259 953
260 292
260 298
260 320
260 323
260 324
260 352
260 399
260 412
260 442
260 501
260 546
260 581
260 592
260 655
260 661
260 692
260 743
260 806
260 817
260 819
260 839
260 846
260 870
260 894
260 929
261 283
261 303
261 330
261 358
261 378
261 444
261 461
261 510
261 581
261 608
261 618
261 641
261 697
261 707
261 733
261 764
261 780
261 899
261 945
261 952
261 956
261 962
261 993
262 291
262 306
262 332
262 356
262 370
262 384
262 438
262 465
262 478
262 494
262 503
262 520
262 536
262 574
262 585
262 608
262 617
262 653
262 659
262 666
262 732
262 733
262 735
262 778
262 780
262 789
262 820
262 827
262 834
262 842
262 892
262 943
263 267
263 297
263 327
263 380
263 427
263 442
263 445
263 477
263 507
263 520
263 529
263 607
263 667
263 714
263 783
263 857
263 878
263 905
263 922
263 967
264 281
264 285
264 338
264 351
264 389
264 390
264 439
264 459
264 488
264 514
264 537
264 576
264 597
264 621
264 627
264 668
264 696
264 712
264 721
264 722
264 730
264 764
264 789
264 850
264 860
265 350
265 378
265 382
265 438
265 445
265 507
265 610
265 655
265 662
265 665
265 680
265 688
265 691
265 700
265 732
265 743
265 752
265 756
265 782
265 790
265 837
265 940
265 989
266 366
266 370
266 522
266 534
266 604
266 624
266 651
266 665
266 714
266 722
266 749
266 798
266 853
266 955
266 973
266 975
266 997
267 321
267 370
267 382
267 384
267 387
267 419
267 429
267 526
267 531
267 536
267 571
267 579
267 596
267 613
267 615
267 645
267 713
267 754
267 761
267 883
267 899
267 926
267 945
268 269
268 278
268 290
268 342
268 349
268 369
268 421
268 446
268 493
268 517
268 611
268 628
268 630
268 695
268 699
268 700
268 720
268 760
268 765
268 784
268 801
268 811
268 819
268 891
268 987
268 999
269 270
269 278
269 283
269 284
269 298
269 304
269 315
269 339
269 346
269 357
269 364
269 378
269 432
269 506
269 528
269 581
269 615
269 711
269 726
269 807
269 835
269 839
269 842
269 892
269 911
269 956
269 963
269 996
270 282
270 324
270 325
270 387
270 395
270 417
270 429
270 461
270 462
270 466
270 490
270 499
270 507
270 549
270 552
270 613
270 633
270 649
270 651
270 652
270 705
270 807
270 856
270 865
270 931
270 952
271 322
271 327
271 354
271 358
271 359
271 364
271 373
271 389
271 413
271 493
271 515
271 521
271 537
271 570
271 573
271 587
271 691
271 769
271 783
271 817
271 847
271 865
271 905
272 330
272 340
272 350
272 396
272 408
272 476
272 488
272 490
272 526
272 545
272 567
272 635
272 687
272 692
272 693
272 804
272 814
272 815
272 891
272 905
272 991
273 275
273 280
273 297
273 355
273 360
273 371
273 381
273 384
273 405
273 413
273 435
273 468
273 486
273 488
273 500
273 521
273 523
273 566
273 598
273 615
273 622
273 651
273 675
273 680
273 696
273 719
273 726
273 731
273 785
273 787
273 790
273 821
273 888
273 891
273 935
273 940
273 946
273 963
274 308
274 321
274 337
274 349
274 354
274 378
274 418
274 420
274 461
274 505
274 559
274 572
274 586
274 616
274 620
274 667
274 677
274 715
274 724
274 748
274 774
274 809
274 829
274 853
274 869
274 873
274 882
274 893
274 898
274 900
274 928
274 964
274 977
275 285
275 286
275 361
275 412
275 453
275 461
275 510
275 512
275 579
275 596
275 699
275 745
275 777
275 785
275 806
275 853
275 901
275 908
276 303
276 304
276 311
276 385
276 395
276 411
276 467
276 519
276 559
276 566
276 651
276 655
276 664
276 684
276 688
276 750
276 759
276 779
276 824
276 845
276 858
276 882
276 911
276 927
276 930
276 966
276 990
277 345
277 358
277 378
277 427
277 430
277 470
277 474
277 496
277 516
277 518
277 530
277 577
277 594
277 614
277 629
277 645
277 658
277 682
277 718
277 728
277 738
277 744
277 776
277 813
277 886
277 895
277 912
277 928
277 945
277 960
278 288
278 342
278 344
278 401
278 422
278 461
278 472
278 526
278 557
278 633
278 637
278 643
278 647
278 691
278 712
278 746
278 782
278 819
278 836
278 841
278 862
278 940
278 977
279 285
279 350
279 431
279 444
279 455
279 489
279 531
279 549
279 554
279 584
279 593
279 606
279 619
279 675
279 742
279 770
279 776
279 791
279 800
279 806
279 818
279 829
279 861
279 892
279 899
279 961
279 995
280 342
280 355
280 380
280 390
280 445
280 454
280 455
280 482
280 506
280 531
280 563
280 649
280 652
280 702
280 737
280 750
280 763
280 775
280 802
280 843
280 866
280 875
280 883
280 905
280 944
280 945
280 967
280 981
281 288
281 292
281 304
281 321
281 324
281 332
281 371
281 395
281 418
281 444
281 446
281 462
281 466
281 479
281 493
281 522
281 548
281 570
281 609
281 725
281 797
281 800
281 836
281 847
281 867
281 937
281 959
281 971
282 420
282 521
282 530
282 540
282 557
282 570
282 578
282 621
282 649
282 683
282 745
282 806
282 822
282 874
282 889
282 917
282 935
282 953
282 957
282 969
282 986
282 998
283 324
283 410
283 459
283 576
283 606
283 630
283 655
283 658
283 691
283 743
283 787
283 815
283 861
283 900
283 949
283 997
284 292
284 328
284 351
284 421
284 444
284 451
284 452
284 472
284 553
284 568
284 596
284 645
284 699
284 728
284 849
284 866
284 883
284 913
284 937
284 963
285 294
285 312
285 334
285 374
285 389
285 396
285 403
285 410
285 415
285 418
285 475
285 501
285 541
285 548
285 589
285 648
285 664
285 676
285 718
285 809
285 818
285 919
285 923
285 926
285 944
285 962
285 971
285 980
286 311
286 386
286 391
286 449
286 472
286 523
286 540
286 561
286 597
286 621
286 629
286 659
286 710
286 713
286 721
286 729
286 778
286 791
286 798
286 840
286 871
286 872
286 892
286 923
286 929
286 937
286 946
286 994
287 291
287 298
287 301
287 340
287 368
287 409
287 449
287 468
287 484
287 529
287 599
287 601
287 638
287 705
287 744
287 752
287 769
287 879
287 882
287 900
287 904
287 910
287 996
288 353
288 374
288 396
288 413
288 442
288 446
288 454
288 466
288 482
288 594
288 597
288 628
288 643
288 657
288 688
288 723
288 748
288 776
288 815
288 855
288 916
288 951
288 963
289 343
289 368
289 405
289 408
289 464
289 538
289 568
289 579
289 608
289 623
289 736
289 773
289 776
289 789
289 818
289 832
289 838
289 863
289 885
289 929
289 949
289 957
289 959
289 996
290 367
290 378
290 406
290 557
290 612
290 666
290 686
290 693
290 741
290 777
290 858
290 886
290 921
290 969
290 973
291 306
291 360
291 374
291 376
291 389
291 391
291 403
291 468
291 491
291 501
291 537
291 539
291 580
291 618
291 630
291 660
291 705
291 731
291 761
291 765
291 805
291 878
291 957
291 965
291 967
292 298
292 302
292 350
292 357
292 395
292 530
292 558
292 582
292 583
292 637
292 649
292 666
292 667
292 691
292 701
292 733
292 740
292 766
292 779
292 829
292 836
292 873
292 880
292 983
293 321
293 354
293 380
293 395
293 405
293 474
293 484
293 511
293 538
293 579
293 583
293 597
293 656
293 703
293 755
293 788
293 872
293 999
294 300
294 396
294 398
294 412
294 430
294 449
294 521
294 577
294 622
294 684
294 713
294 775
294 821
294 886
294 913
294 925
294 934
294 963
294 972
294 977
294 985
295 302
295 331
295 341
295 350
295 361
295 461
295 474
295 498
295 529
295 574
295 593
295 604
295 618
295 669
295 695
295 873
295 909
295 929
295 974
296 348
296 352
296 357
296 374
296 428
296 436
296 499
296 540
296 542
296 568
296 575
296 583
296 619
296 626
296 630
296 802
296 803
296 813
296 827
296 830
296 842
296 856
296 876
296 975
296 977
297 338
297 374
297 396
297 407
297 425
297 459
297 466
297 510
297 516
297 526
297 545
297 572
297 577
297 593
297 604
297 622
297 757
297 807
297 852
297 900
297 915
297 926
297 949
297 992
298 334
298 336
298 354
298 364
298 482
298 557
298 589
298 592
298 621
298 691
298 707
298 725
298 729
298 734
298 747
298 782
298 787
298 849
298 882
298 883
298 892
298 910
298 987
299 364
299 370
299 431
299 480
299 597
299 598
299 631
299 677
299 679
299 705
299 736
299 749
299 751
299 770
299 788
299 842
299 883
299 924
299 931
300 418
300 426
300 428
300 462
300 479
300 540
300 562
300 563
300 577
300 580
300 598
300 661
300 667
300 669
300 697
300 817
300 819
300 878
300 903
300 941
300 981
300 999
301 340
301 360
301 389
301 555
301 564
301 678
301 679
301 700
301 771
301 778
301 791
301 812
301 819
301 827
301 833
301 927
301 974
301 978
302 328
302 381
302 418
302 435
302 445
302 449
302 488
302 501
302 534
302 590
302 612
302 621
302 667
302 693
302 729
302 752
302 754
302 785
302 790
302 876
302 900
302 948
302 956
303 362
303 366
303 382
303 453
303 503
303 631
303 653
303 672
303 686
303 808
303 863
303 871
303 886
303 899
303 912
303 913
304 346
304 376
304 411
304 419
304 434
304 458
304 489
304 498
304 539
304 551
304 569
304 595
304 607
304 645
304 654
304 680
304 693
304 726
304 728
304 754
304 798
304 826
304 847
304 900
304 905
304 921
305 322
305 333
305 450
305 465
305 574
305 613
305 633
305 645
305 666
305 720
305 746
305 761
305 768
305 771
305 795
305 829
305 835
305 849
305 867
305 896
305 905
305 959
305 967
306 392
306 393
306 440
306 482
306 489
306 623
306 631
306 681
306 726
306 770
306 771
306 784
306 827
306 829
306 839
306 841
306 846
306 861
306 892
306 914
306 918
306 956
306 968
306 976
306 983
306 986
306 997
307 332
307 335
307 348
307 356
307 357
307 419
307 449
307 450
307 451
307 455
307 459
307 466
307 490
307 563
307 574
307 647
307 777
307 779
307 794
307 803
307 845
307 848
307 960
307 974
307 976
308 321
308 355
308 411
308 430
308 435
308 506
308 516
308 521
308 540
308 574
308 600
308 656
308 721
308 747
308 766
308 776
308 783
308 833
308 862
308 917
308 922
308 948
308 969
309 324
309 387
309 398
309 401
309 411
309 419
309 520
309 524
309 569
309 590
309 595
309 598
309 655
309 719
309 783
309 800
309 832
309 867
309 983
309 992
310 313
310 328
310 354
310 384
310 390
310 456
310 470
310 535
310 579
310 582
310 586
310 588
310 609
310 623
310 641
310 644
310 711
310 723
310 768
310 891
310 935
310 981
310 984
310 999
311 373
311 387
311 392
311 400
311 415
311 450
311 489
311 514
311 571
311 577
311 608
311 621
311 629
311 630
311 664
311 699
311 804
311 958
311 966
312 326
312 356
312 361
312 377
312 403
312 426
312 463
312 495
312 564
312 614
312 618
312 631
312 661
312 764
312 777
312 779
312 821
312 848
312 889
312 890
312 921
312 925
312 967
313 318
313 325
313 339
313 350
313 369
313 376
313 390
313 441
313 562
313 592
313 652
313 676
313 680
313 698
313 716
313 757
313 780
313 849
313 895
313 902
313 964
313 989
313 998
314 345
314 357
314 375
314 393
314 408
314 416
314 417
314 421
314 435
314 447
314 460
314 489
314 502
314 552
314 556
314 559
314 567
314 592
314 603
314 606
314 630
314 773
314 866
314 887
314 896
314 944
314 954
314 997
315 367
315 396
315 441
315 467
315 474
315 589
315 599
315 661
315 675
315 684
315 691
315 694
315 695
315 725
315 741
315 743
315 760
315 828
315 849
315 864
315 890
315 952
315 959
315 997
316 376
316 396
316 427
316 469
316 543
316 544
316 551
316 559
316 644
316 685
316 749
316 770
316 811
316 823
316 829
316 839
316 856
316 946
316 966
316 995
317 379
317 388
317 400
317 405
317 439
317 445
317 487
317 493
317 537
317 564
317 639
317 645
317 647
317 687
317 690
317 711
317 720
317 731
317 774
317 861
317 884
317 899
317 907
317 929
317 955
317 998
318 319
318 357
318 366
318 389
318 439
318 444
318 483
318 485
318 495
318 505
318 514
318 519
318 575
318 576
318 618
318 673
318 704
318 838
318 844
318 861
318 914
318 927
318 982
319 348
319 360
319 362
319 375
319 445
319 447
319 478
319 483
319 518
319 524
319 526
319 528
319 545
319 556
319 583
319 595
319 618
319 646
319 650
319 719
319 734
319 736
319 741
319 754
319 770
319 794
319 828
319 884
319 920
319 938
319 965
320 331
320 340
320 361
320 366
320 374
320 408
320 449
320 469
320 511
320 532
320 590
320 621
320 635
320 696
320 742
320 753
320 792
320 800
320 811
320 815
320 951
320 961
320 963
320 998
321 332
321 364
321 366
321 394
321 448
321 450
321 453
321 473
321 556
321 570
321 588
321 593
321 605
321 607
321 643
321 645
321 658
321 685
321 710
321 724
321 733
321 810
321 815
321 849
321 866
321 868
321 869
321 872
321 878
321 880
321 900
321 901
321 907
321 919
321 921
321 926
321 963
322 330
322 381
322 407
322 417
322 458
322 462
322 538
322 543
322 599
322 631
322 646
322 686
322 695
322 707
322 709
322 799
322 802
322 843
322 851
322 853
322 871
322 877
322 914
322 925
322 934
322 961
322 994
323 351
323 393
323 442
323 444
323 471
323 492
323 493
323 598
323 599
323 632
323 672
323 710
323 735
323 768
323 806
323 810
323 844
323 891
323 917
323 982
324 458
324 491
324 527
324 643
324 649
324 721
324 739
324 745
324 746
324 812
324 813
324 854
324 862
324 885
324 889
324 917
324 930
324 954
324 993
325 348
325 353
325 377
325 385
325 389
325 390
325 441
325 451
325 487
325 502
325 561
325 563
325 572
325 600
325 629
325 661
325 675
325 676
325 678
325 706
325 755
325 826
325 847
325 862
325 883
325 884
325 913
325 959
325 962
325 967
325 969
326 355
326 370
326 375
326 385
326 388
326 396
326 478
326 485
326 511
326 572
326 591
326 725
326 777
326 803
326 825
326 864
326 886
326 888
326 914
326 921
326 926
326 938
326 944
326 947
326 990
326 995
327 339
327 345
327 470
327 478
327 513
327 515
327 544
327 548
327 561
327 583
327 686
327 771
327 778
327 789
327 854
327 861
327 869
327 893
327 894
327 931
327 934
327 947
327 978
328 351
328 358
328 359
328 404
328 424
328 446
328 457
328 469
328 535
328 570
328 591
328 599
328 611
328 685
328 712
328 803
328 911
328 923
328 947
329 389
329 438
329 456
329 487
329 546
329 555
329 589
329 597
329 617
329 645
329 653
329 700
329 713
329 719
329 721
329 739
329 743
329 805
329 845
329 852
329 856
329 860
329 890
329 894
329 942
329 954
329 956
329 967
329 973
329 995
329 997
330 339
330 350
330 361
330 396
330 405
330 417
330 481
330 518
330 534
330 596
330 626
330 671
330 747
330 795
330 826
330 841
330 907
330 910
331 362
331 398
331 436
331 463
331 476
331 509
331 531
331 560
331 618
331 629
331 630
331 632
331 638
331 660
331 708
331 709
331 767
331 792
331 811
331 836
331 847
331 863
331 872
331 954
331 966
331 975
331 997
332 345
332 368
332 374
332 417
332 469
332 474
332 479
332 494
332 513
332 531
332 558
332 591
332 599
332 647
332 656
332 673
332 689
332 712
332 739
332 740
332 742
332 747
332 831
332 839
332 846
332 914
333 336
333 340
333 351
333 367
333 394
333 398
333 404
333 429
333 477
333 480
333 525
333 539
333 582
333 633
333 639
333 671
333 677
333 679
333 680
333 689
333 727
333 730
333 743
333 746
333 754
333 808
333 814
333 862
333 902
333 949
333 954
333 962
333 987
333 992
334 365
334 407
334 423
334 425
334 433
334 435
334 457
334 481
334 492
334 522
334 560
334 577
334 643
334 680
334 699
334 772
334 786
334 787
334 838
334 853
334 895
334 919
334 926
334 948
334 993
334 995
335 353
335 462
335 468
335 472
335 497
335 501
335 546
335 618
335 665
335 679
335 693
335 721
335 727
335 761
335 770
335 784
335 821
335 857
335 922
335 928
335 951
336 340
336 375
336 465
336 477
336 486
336 487
336 498
336 532
336 533
336 561
336 573
336 578
336 635
336 655
336 685
336 715
336 776
336 885
336 905
336 919
336 945
336 955
336 972
336 983
337 357
337 449
337 585
337 639
337 648
337 678
337 685
337 696
337 706
337 725
337 738
337 754
337 836
337 840
337 841
337 874
337 889
337 935
337 966
337 997
337 999
338 342
338 433
338 443
338 457
338 513
338 518
338 546
338 660
338 670
338 706
338 725
338 771
338 802
338 868
338 915
338 916
338 932
338 941
338 972
338 989
338 992
339 366
339 367
339 398
339 408
339 729
339 779
339 801
339 811
339 856
339 879
339 903
339 906
339 911
339 965
339 973
340 353
340 384
340 398
340 407
340 435
340 451
340 464
340 490
340 495
340 513
340 544
340 575
340 589
340 598
340 603
340 634
340 648
340 659
340 689
340 702
340 744
340 770
340 804
340 833
340 841
340 848
340 864
340 947
341 373
341 398
341 428
341 436
341 465
341 479
341 501
341 558
341 580
341 585
341 675
341 686
341 728
341 751
341 792
341 816
341 822
341 827
341 830
341 910
341 919
341 928
341 976
341 979
341 984
341 988
342 364
342 407
342 409
342 436
342 454
342 487
342 490
342 517
342 523
342 544
342 567
342 576
342 622
342 624
342 657
342 666
342 676
342 680
342 690
342 720
342 757
342 768
342 780
342 790
342 847
342 956
342 962
342 965
342 979
343 348
343 369
343 383
343 426
343 449
343 454
343 534
343 549
343 594
343 602
343 605
343 643
343 654
343 661
343 670
343 696
343 722
343 739
343 751
343 754
343 777
343 781
343 823
343 824
343 862
343 881
343 882
343 981
343 992
344 353
344 355
344 356
344 454
344 463
344 508
344 515
344 619
344 645
344 718
344 816
344 828
344 860
344 864
344 871
344 886
344 948
344 963
345 370
345 376
345 385
345 399
345 536
345 544
345 558
345 559
345 579
345 611
345 613
345 622
345 639
345 643
345 654
345 703
345 734
345 746
345 758
345 786
345 820
345 826
345 841
345 875
345 917
346 380
346 401
346 415
346 424
346 433
346 486
346 543
346 569
346 576
346 598
346 617
346 625
346 634
346 665
346 669
346 689
346 698
346 746
346 762
346 768
346 809
346 843
346 904
346 936
346 957
347 364
347 394
347 401
347 434
347 463
347 486
347 581
347 683
347 709
347 726
347 733
347 741
347 745
347 753
347 763
347 793
347 799
347 858
347 861
347 868
347 873
347 879
347 887
347 888
347 902
347 909
347 966
347 992
348 437
348 482
348 513
348 567
348 581
348 626
348 635
348 640
348 650
348 669
348 683
348 743
348 803
348 844
348 869
348 872
348 873
348 936
348 962
348 978
349 374
349 458
349 462
349 479
349 498
349 542
349 591
349 618
349 656
349 661
349 760
349 774
349 780
349 803
349 814
349 832
349 833
349 849
349 869
349 885
349 915
349 945
349 952
349 969
350 391
350 426
350 427
350 448
350 516
350 624
350 631
350 666
350 682
350 697
350 719
350 720
350 761
350 780
350 793
350 804
350 902
350 917
350 983
351 358
351 359
351 374
351 375
351 395
351 462
351 487
351 506
351 529
351 532
351 584
351 595
351 601
351 602
351 675
351 686
351 700
351 726
351 801
351 834
351 871
351 900
351 921
351 957
352 367
352 408
352 427
352 445
352 487
352 495
352 505
352 506
352 516
352 549
352 583
352 588
352 598
352 683
352 695
352 708
352 766
352 768
352 829
352 839
352 901
352 907
352 939
352 973
353 374
353 390
353 445
353 502
353 512
353 555
353 557
353 577
353 587
353 595
353 607
353 623
353 633
353 646
353 657
353 719
353 728
353 841
353 843
353 894
353 935
353 946
353 983
354 403
354 422
354 449
354 464
354 465
354 477
354 505
354 521
354 539
354 542
354 600
354 601
354 633
354 648
354 687
354 728
354 764
354 788
354 802
354 824
354 852
354 915
354 956
355 383
355 434
355 468
355 490
355 497
355 510
355 528
355 574
355 638
355 676
355 748
355 791
355 799
355 826
355 873
355 925
355 959
355 995
356 373
356 430
356 442
356 495
356 517
356 558
356 560
356 563
356 566
356 570
356 590
356 620
356 622
356 633
356 651
356 749
356 857
356 980
356 985
357 366
357 375
357 381
357 517
357 552
357 553
357 572
357 659
357 672
357 789
357 802
357 859
357 898
357 902
357 925
357 940
357 955
358 370
358 379
358 413
358 458
358 518
358 535
358 562
358 575
358 686
358 701
358 714
358 732
358 790
358 830
358 858
358 888
358 891
358 909
358 977
358 978
358 999
359 366
359 428
359 454
359 469
359 513
359 525
359 550
359 557
359 576
359 601
359 612
359 685
359 693
359 702
359 762
359 766
359 774
359 775
359 853
359 988
360 459
360 487
360 496
360 530
360 545
360 553
360 589
360 629
360 639
360 650
360 656
360 660
360 663
360 668
360 749
360 751
360 763
360 838
360 849
360 885
360 898
360 903
360 921
360 933
360 963
360 995
361 427
361 428
361 437
361 521
361 529
361 621
361 625
361 640
361 688
361 704
361 709
361 783
361 796
361 858
361 861
361 880
361 888
361 909
361 928
362 372
362 387
362 423
362 442
362 446
362 461
362 507
362 512
362 578
362 622
362 635
362 655
362 680
362 726
362 734
362 739
362 913
362 953
362 964
362 976
362 980
362 988
362 997
363 380
363 382
363 398
363 467
363 560
363 566
363 600
363 650
363 669
363 750
363 811
363 845
363 870
363 896
363 904
363 915
363 923
363 955
363 964
364 402
364 452
364 455
364 458
364 504
364 525
364 548
364 593
364 598
364 632
364 677
364 678
364 687
364 786
364 788
364 842
364 987
364 990
365 371
365 390
365 418
365 420
365 425
365 450
365 470
365 519
365 541
365 567
365 587
365 615
365 621
365 622
365 649
365 691
365 716
365 762
365 822
365 851
365 867
366 507
366 527
366 550
366 588
366 631
366 655
366 683
366 693
366 730
366 763
366 859
366 891
366 905
366 940
366 947
366 959
366 974
366 977
366 989
367 410
367 416
367 433
367 455
367 478
367 481
367 559
367 593
367 632
367 641
367 736
367 807
367 809
367 835
367 842
367 885
367 910
367 975
368 396
368 405
368 421
368 454
368 529
368 538
368 566
368 575
368 583
368 603
368 647
368 664
368 668
368 693
368 694
368 722
368 733
368 740
368 796
368 809
368 821
368 844
368 910
368 924
368 948
368 983
368 993
368 998
369 392
369 403
369 422
369 577
369 581
369 635
369 641
369 656
369 676
369 727
369 767
369 771
369 865
369 868
369 869
369 880
369 889
369 915
369 953
370 387
370 392
370 415
370 462
370 471
370 488
370 540
370 591
370 623
370 628
370 639
370 666
370 676
370 880
370 986
371 417
371 437
371 458
371 502
371 544
371 545
371 553
371 571
371 594
371 618
371 639
371 651
371 672
371 720
371 866
371 946
371 953
371 961
371 971
371 999
372 383
372 394
372 409
372 431
372 452
372 484
372 487
372 491
372 505
372 530
372 577
372 635
372 658
372 689
372 700
372 753
372 791
372 804
372 850
372 982
372 997
373 378
373 401
373 426
373 455
373 476
373 487
373 493
373 501
373 531
373 564
373 585
373 670
373 678
373 692
373 703
373 715
373 719
373 749
373 779
373 823
373 833
373 848
373 866
373 885
373 895
373 904
373 913
373 918
373 926
373 943
373 962
373 972
373 976
373 984
374 427
374 446
374 452
374 487
374 514
374 532
374 540
374 541
374 580
374 620
374 672
374 685
374 730
374 757
374 825
374 830
374 856
374 872
374 878
375 515
375 527
375 557
375 566
375 693
375 765
375 812
375 907
375 911
375 976
375 979
376 407
376 418
376 427
376 437
376 439
376 556
376 565
376 574
376 596
376 627
376 638
376 677
376 694
376 702
376 755
376 763
376 772
376 793
376 843
376 861
376 912
376 923
376 995
377 378
377 443
377 460
377 467
377 504
377 506
377 529
377 575
377 631
377 650
377 692
377 714
377 754
377 788
377 789
377 803
377 869
377 878
377 917
377 922
377 939
377 977
378 388
378 417
378 428
378 458
378 563
378 576
378 589
378 593
378 596
378 644
378 666
378 721
378 727
378 730
378 740
378 833
378 866
378 891
378 895
378 946
378 963
378 964
378 973
378 975
378 978
378 982
378 994
379 386
379 407
379 424
379 511
379 515
379 554
379 560
379 561
379 638
379 692
379 700
379 732
379 749
379 760
379 852
379 858
379 860
379 896
379 921
379 954
379 980
380 381
380 394
380 426
380 459
380 537
380 595
380 626
380 687
380 690
380 723
380 757
380 822
380 848
380 861
380 874
380 875
380 979
380 999
381 401
381 406
381 453
381 468
381 532
381 599
381 690
381 695
381 763
381 767
381 805
381 808
381 822
381 881
381 939
381 962
382 396
382 403
382 480
382 521
382 522
382 535
382 552
382 557
382 581
382 634
382 704
382 707
382 710
382 714
382 722
382 739
382 766
382 780
382 906
382 918
382 932
382 943
382 974
383 397
383 412
383 420
383 492
383 518
383 540
383 565
383 571
383 585
383 595
383 602
383 698
383 730
383 735
383 842
383 854
383 857
383 860
383 900
383 909
383 910
383 938
383 962
384 391
384 447
384 476
384 596
384 626
384 631
384 659
384 661
384 695
384 709
384 720
384 765
384 806
384 810
384 848
384 952
384 955
384 977
385 410
385 418
385 423
385 424
385 454
385 473
385 480
385 521
385 542
385 566
385 572
385 581
385 635
385 648
385 679
385 687
385 781
385 789
385 797
385 872
385 903
385 935
385 940
385 969
385 995
386 403
386 446
386 455
386 481
386 500
386 526
386 555
386 580
386 590
386 597
386 613
386 619
386 621
386 633
386 656
386 661
386 701
386 708
386 767
386 783
386 794
386 805
386 912
386 918
386 928
386 971
386 982
387 409
387 427
387 436
387 437
387 483
387 510
387 594
387 608
387 620
387 625
387 740
387 764
387 861
387 874
387 876
387 883
387 896
387 966
387 975
387 982
388 441
388 476
388 509
388 621
388 736
388 744
388 750
388 790
388 797
388 822
388 831
388 869
388 890
388 906
388 923
388 978
389 401
389 406
389 435
389 447
389 489
389 503
389 556
389 589
389 675
389 816
389 847
389 852
389 861
389 939
390 404
390 465
390 517
390 519
390 619
390 621
390 622
390 627
390 661
390 670
390 671
390 693
390 723
390 798
390 801
390 845
390 891
390 892
390 934
390 944
390 947
391 403
391 416
391 448
391 480
391 485
391 500
391 628
391 634
391 638
391 643
391 651
391 658
391 672
391 684
391 710
391 715
391 724
391 769
391 827
391 863
391 869
391 877
391 887
391 909
391 936
391 949
391 961
392 480
392 494
392 524
392 630
392 673
392 680
392 687
392 790
392 811
392 830
392 891
392 934
392 948
392 960
392 987
393 436
393 491
393 500
393 557
393 565
393 581
393 583
393 628
393 691
393 701
393 739
393 781
393 910
393 912
393 923
393 981
393 991
394 453
394 480
394 485
394 511
394 522
394 531
394 533
394 562
394 580
394 598
394 623
394 757
394 804
394 806
394 858
394 938
394 974
394 978
394 980
395 414
395 421
395 424
395 501
395 509
395 533
395 549
395 617
395 625
395 656
395 744
395 765
395 805
395 836
395 866
395 892
395 954
396 406
396 422
396 431
396 435
396 470
396 473
396 489
396 492
396 510
396 541
396 557
396 585
396 589
396 597
396 653
396 685
396 699
396 722
396 738
396 741
396 848
396 995
396 996
397 411
397 428
397 429
397 444
397 461
397 494
397 537
397 567
397 582
397 592
397 621
397 654
397 676
397 680
397 705
397 739
397 781
397 802
397 803
397 817
397 826
397 832
397 864
397 890
397 907
397 928
397 961
397 985
398 480
398 542
398 547
398 598
398 651
398 699
398 710
398 718
398 758
398 761
398 768
398 798
398 960
398 964
398 983
398 989
399 431
399 473
399 475
399 510
399 543
399 565
399 604
399 669
399 671
399 736
399 803
399 932
399 956
399 982
399 991
400 406
400 517
400 531
400 541
400 581
400 652
400 669
400 726
400 746
400 814
400 818
400 866
400 913
400 915
400 926
400 935
401 405
401 421
401 458
401 473
401 499
401 555
401 572
401 597
401 630
401 639
401 640
401 642
401 667
401 685
401 687
401 694
401 703
401 733
401 736
401 787
401 823
401 844
401 850
401 852
401 864
401 882
401 894
401 928
401 985
402 415
402 421
402 451
402 462
402 466
402 488
402 493
402 503
402 534
402 585
402 591
402 681
402 683
402 690
402 715
402 721
402 756
402 768
402 772
402 805
402 833
402 899
402 966
403 430
403 486
403 516
403 539
403 545
403 553
403 570
403 577
403 615
403 617
403 630
403 672
403 692
403 696
403 732
403 866
403 892
403 914
403 973
404 465
404 519
404 548
404 579
404 612
404 644
404 686
404 826
404 831
404 834
404 847
404 896
404 940
405 611
405 627
405 671
405 679
405 702
405 713
405 715
405 741
405 763
405 768
405 771
405 774
405 777
405 813
405 837
405 847
405 851
405 854
405 860
405 862
405 865
405 910
405 941
405 956
405 970
406 408
406 436
406 454
406 482
406 489
406 511
406 520
406 565
406 590
406 612
406 672
406 699
406 742
406 829
406 905
406 947
406 957
406 974
407 418
407 439
407 442
407 499
407 569
407 591
407 632
407 664
407 686
407 705
407 765
407 781
407 875
407 882
407 895
407 922
407 943
407 957
408 459
408 512
408 527
408 529
408 537
408 538
408 605
408 649
408 657
408 660
408 710
408 725
408 772
408 806
408 810
408 826
408 835
408 872
408 873
408 880
408 905
408 926
408 928
408 930
408 981
409 425
409 446
409 500
409 511
409 521
409 525
409 550
409 560
409 568
409 572
409 604
409 674
409 725
409 796
409 800
409 894
409 968
409 976
409 978
409 997
410 454
410 470
410 481
410 489
410 516
410 578
410 584
410 669
410 706
410 748
410 800
410 810
410 816
410 835
410 838
410 861
410 865
410 946
410 969
411 440
411 459
411 494
411 601
411 618
411 632
411 637
411 758
411 785
411 793
411 815
411 823
411 830
411 838
411 873
411 906
411 946
411 952
411 972
412 415
412 451
412 458
412 481
412 491
412 503
412 543
412 609
412 613
412 616
412 696
412 713
412 720
412 728
412 737
412 739
412 755
412 837
412 843
412 865
412 869
412 926
412 930
412 940
412 944
413 418
413 424
413 428
413 447
413 490
413 535
413 560
413 642
413 685
413 697
413 728
413 736
413 769
413 798
413 835
413 884
413 890
413 895
413 921
414 415
414 429
414 489
414 524
414 529
414 574
414 660
414 663
414 674
414 726
414 801
414 803
414 816
414 853
414 864
414 875
414 898
414 899
414 918
414 920
414 941
415 446
415 486
415 488
415 520
415 548
415 554
415 577
415 624
415 630
415 656
415 693
415 741
415 784
415 843
415 868
415 923
415 968
415 975
415 981
416 442
416 497
416 503
416 552
416 601
416 623
416 818
416 826
416 860
416 875
416 879
416 931
416 944
416 949
416 956
416 973
416 988
417 425
417 428
417 434
417 502
417 512
417 526
417 535
417 595
417 605
417 665
417 670
417 672
417 697
417 698
417 701
417 707
417 723
417 767
417 794
417 828
417 830
417 856
417 857
417 860
417 867
417 876
417 890
417 905
417 906
417 912
417 913
417 944
417 982
418 427
418 436
418 451
418 516
418 564
418 597
418 616
418 647
418 710
418 718
418 740
418 782
418 849
418 894
418 897
418 924
418 927
418 943
418 960
418 986
419 461
419 496
419 503
419 512
419 637
419 660
419 668
419 669
419 695
419 727
419 773
419 786
419 808
419 821
419 835
419 848
419 870
419 906
419 937
419 938
419 977
420 421
420 435
420 505
420 556
420 571
420 585
420 609
420 620
420 685
420 710
420 760
420 771
420 785
420 802
420 805
420 810
420 818
420 832
420 877
420 886
420 936
421 431
421 441
421 448
421 513
421 517
421 521
421 546
421 563
421 586
421 611
421 643
421 735
421 775
421 781
421 840
421 866
421 889
421 912
421 914
421 972
422 470
422 498
422 575
422 583
422 645
422 648
422 686
422 704
422 820
422 833
422 846
422 851
422 907
422 909
422 935
422 952
422 981
423 437
423 480
423 519
423 521
423 542
423 558
423 617
423 628
423 658
423 761
423 767
423 815
423 862
423 863
423 897
423 918
423 919
423 992
424 524
424 526
424 529
424 537
424 555
424 608
424 617
424 743
424 878
424 883
424 912
424 914
424 921
424 965
425 449
425 451
425 465
425 477
425 484
425 542
425 549
425 561
425 579
425 611
425 618
425 677
425 683
425 687
425 693
425 697
425 860
425 960
425 985
426 455
426 458
426 478
426 492
426 520
426 582
426 595
426 634
426 753
426 766
426 796
426 803
426 806
426 830
426 841
426 884
426 891
426 898
426 904
426 966
427 488
427 541
427 553
427 639
427 642
427 645
427 654
427 671
427 680
427 683
427 696
427 706
427 731
427 752
427 802
427 808
427 859
427 889
427 901
427 917
427 925
427 938
427 981
428 434
428 445
428 472
428 537
428 616
428 638
428 665
428 699
428 718
428 720
428 743
428 760
428 801
428 815
428 863
428 916
428 930
428 966
428 972
429 434
429 456
429 478
429 479
429 596
429 603
429 638
429 682
429 711
429 735
429 744
429 753
429 754
429 763
429 774
429 786
429 803
429 810
429 869
429 878
429 904
429 920
429 957
429 973
429 991
430 468
430 472
430 481
430 544
430 568
430 625
430 636
430 651
430 658
430 679
430 681
430 704
430 748
430 758
430 823
430 851
430 856
430 873
430 881
430 900
430 919
430 930
430 950
430 970
430 979
430 985
430 986
431 492
431 493
431 511
431 512
431 523
431 527
431 553
431 562
431 654
431 669
431 702
431 748
431 762
431 763
431 803
431 836
431 845
431 872
431 876
431 878
431 892
431 898
431 950
431 961
431 964
431 998
432 441
432 458
432 461
432 480
432 487
432 503
432 533
432 611
432 629
432 645
432 661
432 708
432 756
432 758
432 770
432 830
432 837
432 842
432 902
432 933
432 938
432 954
432 984
433 438
433 484
433 542
433 572
433 597
433 604
433 611
433 615
433 617
433 723
433 791
433 801
433 804
433 817
433 878
433 888
433 901
433 935
433 943
433 971
434 442
434 450
434 479
434 483
434 525
434 543
434 551
434 557
434 568
434 623
434 642
434 648
434 651
434 675
434 697
434 745
434 766
434 840
434 881
434 882
434 884
434 895
434 914
434 929
434 959
434 991
434 999
435 438
435 442
435 503
435 522
435 585
435 593
435 621
435 700
435 709
435 710
435 726
435 751
435 828
435 877
435 923
435 942
435 966
436 447
436 469
436 483
436 505
436 514
436 541
436 544
436 546
436 566
436 620
436 673
436 688
436 710
436 724
436 767
436 834
436 870
436 896
436 921
436 967
436 980
436 988
436 996
437 441
437 450
437 456
437 471
437 499
437 507
437 516
437 534
437 560
437 630
437 645
437 665
437 682
437 704
437 724
437 726
437 740
437 804
437 818
437 819
437 824
437 860
437 886
437 915
437 916
437 969
437 977
437 981
437 994
438 471
438 523
438 541
438 590
438 619
438 626
438 646
438 655
438 658
438 700
438 702
438 728
438 806
438 820
438 884
438 947
438 963
438 991
439 442
439 444
439 473
439 504
439 524
439 549
439 554
439 556
439 563
439 587
439 597
439 602
439 613
439 642
439 653
439 706
439 725
439 745
439 818
439 843
439 854
439 994
440 457
440 522
440 527
440 528
440 594
440 619
440 680
440 710
440 721
440 776
440 804
440 855
440 882
440 885
440 929
440 958
440 998
441 487
441 510
441 536
441 549
441 557
441 564
441 565
441 573
441 582
441 603
441 604
441 605
441 617
441 659
441 672
441 675
441 709
441 712
441 732
441 754
441 782
441 790
441 798
441 811
441 813
441 834
441 841
441 864
441 901
441 938
441 947
441 953
441 961
441 983
441 988
441 999
442 463
442 509
442 510
442 528
442 531
442 561
442 574
442 679
442 714
442 718
442 746
442 794
442 837
442 838
443 526
443 530
443 573
443 671
443 678
443 717
443 795
443 821
443 843
443 901
443 949
443 981
444 464
444 468
444 498
444 508
444 509
444 582
444 606
444 619
444 629
444 649
444 732
444 775
444 815
444 845
444 909
444 984
445 503
445 530
445 585
445 623
445 624
445 694
445 776
445 811
445 872
445 911
445 950
445 952
445 969
446 487
446 496
446 532
446 538
446 591
446 598
446 607
446 619
446 657
446 664
446 727
446 771
446 796
446 848
446 856
446 895
446 982
446 983
447 491
447 499
447 519
447 531
447 563
447 647
447 670
447 680
447 689
447 750
447 777
447 809
447 882
447 899
447 935
448 476
448 494
448 543
448 547
448 559
448 582
448 599
448 624
448 645
448 681
448 700
448 717
448 759
448 761
448 781
448 804
448 811
448 825
448 879
448 880
448 887
448 899
448 990
448 994
449 460
449 507
449 525
449 526
449 533
449 542
449 688
449 691
449 719
449 786
449 796
449 802
449 807
449 858
449 876
449 886
449 902
449 917
449 948
449 990
450 462
450 469
450 490
450 494
450 582
450 684
450 705
450 734
450 738
450 773
450 827
450 835
450 843
450 858
450 862
450 865
450 876
450 895
450 936
450 952
450 983
451 455
451 468
451 469
451 470
451 475
451 476
451 524
451 533
451 573
451 575
451 576
451 705
451 750
451 760
451 765
451 828
451 889
451 935
451 940
451 955
452 457
452 465
452 480
452 510
452 603
452 604
452 619
452 655
452 667
452 672
452 728
452 749
452 754
452 777
452 805
452 806
452 826
452 859
452 891
452 903
452 933
452 936
452 975
452 984
453 478
453 512
453 557
453 594
453 618
453 648
453 692
453 697
453 701
453 724
453 758
453 767
453 768
453 802
453 901
453 909
453 932
453 961
454 458
454 516
454 523
454 546
454 605
454 617
454 622
454 648
454 729
454 732
454 778
454 782
454 792
454 817
454 823
454 834
454 837
454 864
454 903
454 942
454 971
455 462
455 512
455 529
455 534
455 537
455 553
455 580
455 607
455 612
455 629
455 633
455 678
455 686
455 691
455 695
455 723
455 917
455 938
455 943
456 501
456 524
456 549
456 569
456 588
456 594
456 620
456 637
456 663
456 689
456 748
456 777
456 811
456 814
456 857
456 860
456 871
456 878
456 900
456 953
457 465
457 471
457 486
457 520
457 522
457 523
457 530
457 532
457 594
457 693
457 696
457 723
457 764
457 817
457 854
457 906
457 907
457 914
457 917
457 926
457 933
458 463
458 465
458 547
458 571
458 572
458 578
458 596
458 613
458 641
458 663
458 685
458 698
458 702
458 744
458 810
458 833
458 848
458 862
458 922
458 928
458 938
458 989
458 990
459 548
459 596
459 611
459 624
459 627
459 647
459 660
459 679
459 684
459 732
459 738
459 754
459 756
459 822
459 872
459 931
459 936
459 941
459 957
459 964
460 465
460 477
460 501
460 503
460 504
460 554
460 587
460 618
460 629
460 676
460 692
460 780
460 827
460 845
460 962
460 965
460 994
461 466
461 467
461 527
461 531
461 541
461 549
461 554
461 581
461 607
461 625
461 626
461 636
461 660
461 686
461 688
461 704
461 727
461 781
461 805
461 826
461 897
461 924
461 941
461 949
461 952
461 962
461 983
462 472
462 559
462 569
462 573
462 580
462 582
462 695
462 736
462 769
462 805
462 820
462 821
462 832
462 891
462 986
463 477
463 498
463 514
463 532
463 538
463 552
463 555
463 595
463 599
463 645
463 696
463 725
463 736
463 740
463 758
463 770
463 897
463 899
464 466
464 484
464 568
464 590
464 636
464 658
464 661
464 666
464 688
464 734
464 790
464 828
464 995
464 999
465 482
465 485
465 527
465 572
465 574
465 637
465 692
465 704
465 767
465 790
465 798
465 821
465 862
465 881
465 926
465 992
466 522
466 593
466 600
466 613
466 659
466 670
466 674
466 706
466 724
466 756
466 781
466 836
466 857
466 882
466 955
466 997
467 482
467 499
467 578
467 617
467 642
467 643
467 644
467 665
467 674
467 682
467 696
467 728
467 747
467 750
467 752
467 822
467 827
467 845
467 846
467 850
467 855
467 859
467 867
467 877
467 889
467 898
467 909
467 936
467 939
467 958
467 960
467 992
468 470
468 493
468 537
468 644
468 678
468 686
468 696
468 729
468 744
468 746
468 785
468 791
468 822
468 839
468 844
468 855
468 877
468 933
468 941
468 942
468 944
468 950
468 964
468 989
469 478
469 501
469 546
469 596
469 606
469 652
469 657
469 729
469 763
469 773
469 787
469 802
469 805
469 833
469 842
469 884
469 918
469 928
469 963
469 970
469 978
469 989
469 994
470 483
470 522
470 526
470 532
470 556
470 559
470 583
470 610
470 624
470 632
470 661
470 677
470 679
470 719
470 749
470 766
470 799
470 830
470 851
470 880
471 478
471 489
471 490
471 521
471 538
471 578
471 598
471 612
471 624
471 631
471 651
471 653
471 665
471 753
471 788
471 803
471 807
471 809
471 812
471 823
471 846
471 854
471 859
472 482
472 503
472 531
472 532
472 568
472 572
472 603
472 617
472 631
472 649
472 657
472 683
472 731
472 742
472 790
472 853
472 855
472 857
472 860
472 890
472 940
472 941
472 978
473 543
473 544
473 591
473 596
473 621
473 632
473 749
473 820
473 878
473 927
473 929
473 949
473 959
474 497
474 498
474 501
474 506
474 507
474 531
474 583
474 625
474 628
474 688
474 697
474 702
474 718
474 740
474 748
474 756
474 820
474 844
474 881
474 900
474 919
474 929
474 930
474 963
475 704
475 771
475 818
475 842
475 848
475 906
475 925
475 976
475 990
476 532
476 544
476 641
476 682
476 715
476 752
476 773
476 794
476 808
476 833
476 857
476 876
476 892
476 909
476 935
476 975
476 980
477 499
477 514
477 551
477 565
477 568
477 574
477 598
477 601
477 614
477 624
477 718
477 724
477 730
477 741
477 756
477 778
477 793
477 846
477 853
477 945
477 958
477 964
477 968
477 979
477 982
478 502
478 537
478 565
478 629
478 707
478 789
478 805
478 852
478 885
478 964
479 481
479 501
479 507
479 545
479 557
479 577
479 588
479 605
479 620
479 662
479 679
479 694
479 699
479 705
479 819
479 826
479 865
479 882
479 884
479 936
479 996
480 533
480 561
480 564
480 566
480 592
480 607
480 635
480 696
480 746
480 796
480 835
480 859
480 860
480 900
480 939
480 963
480 965
480 980
481 499
481 504
481 536
481 542
481 573
481 590
481 602
481 612
481 638
481 676
481 686
481 716
481 722
481 758
481 761
481 792
482 512
482 571
482 606
482 632
482 636
482 679
482 693
482 707
482 709
482 819
482 827
482 872
482 876
482 896
482 950
482 976
483 498
483 566
483 619
483 674
483 737
483 738
483 814
483 854
483 898
483 949
483 993
483 997
484 559
484 601
484 602
484 607
484 666
484 681
484 809
484 859
484 866
484 868
484 912
484 934
485 493
485 511
485 518
485 547
485 548
485 556
485 567
485 592
485 627
485 665
485 687
485 760
485 806
485 808
485 856
485 858
485 916
485 931
486 490
486 574
486 577
486 602
486 638
486 647
486 697
486 703
486 715
486 780
486 783
486 790
486 798
486 800
486 865
486 904
486 937
487 532
487 559
487 570
487 582
487 598
487 602
487 616
487 648
487 690
487 730
487 827
487 834
487 843
487 901
487 906
487 912
487 919
487 929
487 943
487 966
488 493
488 497
488 528
488 535
488 545
488 561
488 599
488 603
488 774
488 808
488 822
488 845
488 890
488 921
488 937
488 994
489 514
489 521
489 560
489 568
489 575
489 576
489 597
489 615
489 641
489 663
489 669
489 688
489 866
489 887
489 911
489 921
489 996
490 508
490 511
490 524
490 550
490 554
490 565
490 593
490 622
490 676
490 679
490 722
490 755
490 790
490 792
490 810
490 814
490 822
490 826
490 873
490 916
490 965
490 998
491 519
491 537
491 558
491 576
491 609
491 621
491 650
491 721
491 732
491 753
491 763
491 779
491 783
491 815
491 817
491 850
491 859
491 885
491 898
491 958
491 981
491 988
491 996
492 519
492 536
492 550
492 635
492 676
492 700
492 730
492 741
492 770
492 776
492 782
492 785
492 809
492 830
492 837
492 956
493 530
493 581
493 639
493 703
493 740
493 743
493 797
493 826
493 851
493 920
493 926
494 495
494 507
494 547
494 601
494 609
494 671
494 673
494 716
494 726
494 739
494 776
494 806
494 886
494 913
494 928
494 929
494 942
494 954
494 978
495 565
495 629
495 658
495 664
495 679
495 685
495 705
495 714
495 731
495 733
495 739
495 742
495 812
495 865
495 902
495 916
495 955
495 996
496 512
496 578
496 719
496 738
496 760
496 795
496 798
496 804
496 810
496 834
496 883
496 896
497 506
497 543
497 591
497 610
497 669
497 704
497 752
497 846
497 850
497 869
497 916
497 928
497 941
497 957
497 990
498 565
498 599
498 621
498 626
498 668
498 681
498 687
498 688
498 695
498 697
498 711
498 718
498 733
498 740
498 744
498 802
498 852
498 877
498 878
498 915
498 916
498 960
498 964
498 977
499 630
499 658
499 667
499 695
499 728
499 735
499 780
499 789
499 809
499 831
499 920
499 951
499 952
499 956
499 999
500 548
500 553
500 579
500 600
500 626
500 657
500 674
500 698
500 704
500 748
500 764
500 769
500 787
500 808
500 837
500 863
500 947
500 975
500 977
500 998
501 563
501 598
501 601
501 614
501 649
501 676
501 713
501 749
501 772
501 775
501 776
501 870
501 879
501 880
501 906
501 909
501 923
501 970
501 977
501 994
501 996
502 531
502 548
502 575
502 587
502 591
502 618
502 638
502 678
502 687
502 710
502 736
502 778
502 797
502 807
502 824
502 834
502 992
503 526
503 533
503 555
503 584
503 596
503 601
503 609
503 625
503 664
503 665
503 689
503 727
503 735
503 753
503 793
503 796
503 854
503 925
503 937
503 974
503 979
503 989
504 508
504 509
504 563
504 594
504 603
504 604
504 611
504 622
504 642
504 736
504 783
504 788
504 807
504 865
504 900
504 949
504 989
504 992
505 517
505 561
505 577
505 608
505 615
505 633
505 647
505 648
505 675
505 700
505 763
505 806
505 825
505 855
505 861
505 869
505 884
505 891
505 897
505 921
505 932
505 962
506 564
506 568
506 600
506 610
506 637
506 639
506 663
506 698
506 711
506 721
506 921
506 938
507 584
507 638
507 646
507 723
507 793
507 824
507 837
507 843
507 850
507 890
507 935
507 951
507 980
508 529
508 599
508 600
508 652
508 662
508 673
508 694
508 736
508 804
508 813
508 895
508 896
508 926
508 933
508 952
509 533
509 537
509 542
509 570
509 582
509 600
509 607
509 620
509 628
509 696
509 723
509 779
509 813
509 905
509 952
509 959
510 579
510 592
510 646
510 669
510 678
510 746
510 824
510 860
510 911
510 923
510 974
510 982
510 992
510 999
511 541
511 546
511 553
511 636
511 656
511 667
511 670
511 683
511 690
511 720
511 725
511 790
511 791
511 803
511 837
511 905
511 957
511 963
511 982
512 525
512 570
512 637
512 705
512 723
512 742
512 762
512 870
512 952
512 978
513 526
513 535
513 575
513 600
513 637
513 688
513 692
513 730
513 801
513 864
513 868
513 870
513 882
513 883
513 924
513 939
513 983
514 532
514 537
514 543
514 575
514 595
514 596
514 665
514 691
514 755
514 762
514 794
514 802
514 926
514 946
514 949
514 989
515 524
515 527
515 529
515 596
515 634
515 684
515 759
515 794
515 895
515 931
515 974
516 531
516 565
516 577
516 578
516 579
516 598
516 610
516 662
516 670
516 691
516 711
516 725
516 749
516 755
516 856
516 875
516 893
516 897
516 899
516 911
516 927
516 942
516 958
516 960
516 972
517 529
517 560
517 642
517 711
517 810
517 834
517 852
517 853
517 888
517 988
518 642
518 651
518 718
518 737
518 810
518 832
518 859
518 873
518 891
518 918
518 932
519 554
519 563
519 573
519 575
519 581
519 596
519 637
519 651
519 655
519 667
519 680
519 715
519 802
519 863
519 897
519 953
519 982
520 521
520 535
520 558
520 614
520 644
520 658
520 672
520 693
520 696
520 697
520 699
520 784
520 817
520 845
520 891
520 918
520 930
520 954
520 960
520 973
520 990
521 548
521 577
521 673
521 693
521 695
521 697
521 779
521 807
521 824
521 829
521 859
521 863
521 910
521 921
521 951
521 985
522 539
522 558
522 635
522 653
522 679
522 684
522 719
522 737
522 768
522 783
522 910
522 919
522 928
522 942
522 944
522 991
523 532
523 548
523 565
523 583
523 588
523 610
523 614
523 615
523 623
523 653
523 704
523 706
523 712
523 776
523 786
523 798
523 809
523 887
523 915
523 934
523 941
523 958
523 967
524 620
524 632
524 645
524 657
524 723
524 749
524 753
524 798
524 824
524 828
524 859
524 875
524 913
524 989
525 554
525 568
525 581
525 586
525 593
525 642
525 646
525 664
525 754
525 836
525 915
525 920
525 922
525 924
525 968
525 997
526 541
526 542
526 602
526 629
526 709
526 715
526 868
526 875
526 924
527 565
527 579
527 596
527 617
527 618
527 625
527 649
527 700
527 779
527 797
527 818
527 825
527 870
527 924
527 930
527 950
528 535
528 540
528 543
528 553
528 620
528 633
528 655
528 668
528 693
528 697
528 709
528 716
528 787
528 843
528 876
528 915
529 530
529 557
529 587
529 641
529 679
529 856
529 909
529 919
529 984
530 567
530 579
530 625
530 661
530 697
530 761
530 809
530 820
530 849
530 932
530 933
530 937
530 963
531 577
531 626
531 628
531 666
531 683
531 764
531 776
531 800
531 803
531 813
531 843
531 853
531 930
531 939
531 966
531 993
531 995
532 589
532 604
532 606
532 629
532 670
532 695
532 724
532 726
532 766
532 811
532 825
532 852
532 871
532 896
532 904
532 951
532 986
533 564
533 566
533 582
533 616
533 628
533 642
533 646
533 660
533 676
533 690
533 691
533 763
533 780
533 844
533 890
533 900
533 945
533 962
533 983
534 551
534 600
534 650
534 661
534 684
534 741
534 760
534 785
534 836
534 837
534 842
534 870
534 893
534 923
534 980
534 989
534 991
535 541
535 574
535 644
535 820
535 847
535 853
535 858
535 874
535 888
535 889
535 901
535 908
535 932
535 952
536 549
536 556
536 568
536 569
536 691
536 692
536 717
536 727
536 814
536 816
536 823
536 826
536 835
536 857
536 890
536 929
537 564
537 577
537 583
537 600
537 603
537 628
537 683
537 690
537 693
537 808
537 864
537 879
537 888
537 941
537 972
538 542
538 557
538 587
538 604
538 641
538 655
538 705
538 834
538 835
538 864
538 929
539 574
539 579
539 588
539 602
539 610
539 644
539 646
539 647
539 650
539 651
539 666
539 701
539 718
539 739
539 746
539 787
539 837
539 919
539 925
539 952
540 546
540 580
540 586
540 608
540 627
540 652
540 662
540 665
540 725
540 726
540 773
540 830
540 861
540 905
540 958
540 999
541 543
541 554
541 566
541 673
541 698
541 757
541 810
541 822
541 823
541 900
541 974
541 994
542 545
542 546
542 555
542 587
542 588
542 594
542 599
542 623
542 649
542 709
542 718
542 788
542 818
542 821
542 843
542 894
542 968
542 990
543 637
543 680
543 690
543 737
543 804
543 805
543 824
543 878
543 907
543 959
543 967
543 969
544 553
544 560
544 612
544 635
544 660
544 669
544 707
544 735
544 737
544 741
544 746
544 780
544 805
544 876
544 905
544 925
544 998
545 546
545 556
545 557
545 586
545 587
545 624
545 633
545 673
545 730
545 737
545 771
545 784
545 814
545 873
545 876
545 927
545 976
545 979
546 547
546 553
546 608
546 609
546 617
546 627
546 657
546 671
546 675
546 682
546 704
546 728
546 734
546 743
546 778
546 852
546 860
546 875
546 969
546 970
546 979
546 994
547 571
547 575
547 661
547 671
547 673
547 716
547 761
547 766
547 772
547 789
547 839
547 860
547 871
547 921
547 954
547 993
548 598
548 601
548 620
548 622
548 643
548 653
548 701
548 722
548 764
548 771
548 837
548 859
548 878
548 883
548 889
548 901
548 903
548 941
548 943
548 951
548 962
549 577
549 625
549 647
549 678
549 779
549 784
549 790
549 813
549 824
549 841
549 842
549 877
549 902
549 954
549 985
550 622
550 654
550 662
550 684
550 692
550 704
550 715
550 843
550 867
550 900
551 568
551 594
551 611
551 634
551 670
551 684
551 696
551 718
551 744
551 763
551 802
551 808
551 838
551 843
551 858
551 956
551 962
552 597
552 611
552 649
552 652
552 668
552 678
552 684
552 770
552 787
552 818
552 823
552 824
552 864
552 957
552 959
552 962
553 563
553 625
553 667
553 729
553 740
553 761
553 781
553 840
553 912
553 947
553 951
553 991
554 594
554 619
554 636
554 682
554 686
554 692
554 700
554 750
554 766
554 769
554 864
554 938
554 942
554 952
554 964
554 972
555 561
555 601
555 619
555 654
555 722
555 735
555 798
555 808
555 820
555 867
555 875
555 877
555 895
555 896
555 913
555 947
555 953
556 577
556 644
556 767
556 784
556 805
556 822
556 881
556 915
557 561
557 570
557 583
557 586
557 708
557 709
557 793
557 838
557 841
557 851
557 858
557 859
557 909
557 976
558 572
558 680
558 713
558 718
558 733
558 821
558 822
558 843
558 915
558 947
559 573
559 577
559 584
559 589
559 612
559 644
559 663
559 796
559 865
559 910
559 928
559 961
559 985
560 568
560 636
560 680
560 701
560 709
560 762
560 795
560 819
560 840
560 910
560 914
560 918
560 930
560 931
560 955
560 974
560 989
560 996
561 567
561 626
561 660
561 671
561 694
561 697
561 706
561 725
561 748
561 750
561 755
561 764
561 768
561 799
561 828
561 856
561 857
561 891
561 895
561 920
561 936
561 942
561 954
561 979
561 996
562 566
562 603
562 642
562 649
562 712
562 818
562 855
562 878
562 883
562 892
562 939
563 573
563 574
563 622
563 636
563 641
563 650
563 660
563 675
563 691
563 747
563 750
563 780
563 829
563 851
563 882
563 899
563 916
563 919
563 939
563 978
564 600
564 611
564 666
564 673
564 749
564 781
564 873
564 929
564 931
564 941
564 946
564 956
564 963
565 570
565 599
565 624
565 644
565 666
565 768
565 790
565 804
565 810
565 813
565 834
565 867
565 873
565 884
565 906
565 955
565 971
566 582
566 588
566 592
566 647
566 669
566 839
566 850
566 867
566 924
566 929
566 942
566 945
566 976
567 573
567 617
567 641
567 665
567 680
567 716
567 795
567 796
567 819
567 844
567 845
567 870
567 899
567 942
567 969
568 610
568 634
568 700
568 717
568 735
568 779
568 819
568 838
568 864
568 873
568 911
568 930
568 934
569 585
569 605
569 614
569 619
569 624
569 642
569 662
569 674
569 726
569 759
569 782
569 807
569 813
569 831
569 882
569 926
569 931
569 934
569 940
569 958
569 978
570 572
570 624
570 648
570 683
570 704
570 717
570 727
570 741
570 781
570 790
570 811
570 848
570 895
570 899
570 925
570 926
570 981
571 583
571 636
571 680
571 703
571 714
571 756
571 782
571 820
571 910
571 912
571 917
571 933
571 937
571 996
572 626
572 690
572 696
572 711
572 737
572 742
572 766
572 778
572 798
572 810
572 827
572 875
572 885
572 932
572 944
572 978
573 589
573 676
573 700
573 758
573 770
573 816
573 871
573 872
573 882
573 892
573 905
573 920
573 921
573 929
574 600
574 605
574 633
574 653
574 684
574 712
574 734
574 747
574 788
574 795
574 819
574 824
574 888
574 935
575 627
575 673
575 727
575 761
575 782
575 798
575 815
575 831
575 833
575 849
575 882
575 905
575 914
575 946
575 966
575 986
576 596
576 637
576 655
576 674
576 695
576 709
576 751
576 761
576 765
576 794
576 876
576 888
576 913
576 925
576 935
577 643
577 698
577 727
577 754
577 763
577 788
577 820
577 905
577 913
577 955
577 980
577 981
577 983
578 594
578 625
578 721
578 737
578 789
578 795
578 814
578 846
578 940
578 975
579 610
579 632
579 662
579 667
579 748
579 789
579 807
579 825
579 876
579 919
579 933
579 941
579 995
580 585
580 605
580 674
580 707
580 718
580 725
580 791
580 864
580 891
580 943
581 630
581 633
581 726
581 737
581 742
581 743
581 751
581 803
581 810
581 814
581 881
581 923
581 966
581 997
582 590
582 623
582 630
582 673
582 734
582 763
582 772
582 783
582 789
582 822
582 844
582 872
582 886
582 931
582 982
582 992
583 589
583 597
583 680
583 716
583 751
583 768
583 780
583 781
583 794
583 803
583 849
583 942
583 972
583 975
583 999
584 611
584 618
584 688
584 708
584 715
584 731
584 740
584 761
584 778
584 782
584 790
584 799
584 811
584 812
584 871
584 970
584 982
584 991
585 613
585 619
585 650
585 697
585 776
585 797
585 803
585 827
585 894
585 898
585 949
585 957
585 960
586 588
586 590
586 591
586 596
586 607
586 624
586 633
586 662
586 688
586 740
586 804
586 805
586 851
586 899
586 962
587 588
587 602
587 644
587 645
587 653
587 712
587 760
587 783
587 793
587 797
587 831
587 834
587 900
587 994
588 593
588 601
588 678
588 739
588 828
588 866
588 868
588 910
588 941
588 989
589 590
589 620
589 690
589 798
589 824
589 979
590 656
590 672
590 704
590 707
590 755
590 758
590 868
590 869
590 906
590 972
590 995
591 630
591 647
591 672
591 674
591 695
591 724
591 757
591 823
591 852
591 868
591 888
591 895
591 907
591 929
591 967
591 973
592 634
592 670
592 712
592 739
592 833
592 871
592 899
592 941
592 948
592 952
592 962
593 607
593 615
593 740
593 759
593 772
593 791
593 798
593 816
593 856
593 913
593 950
593 952
594 598
594 689
594 699
594 715
594 729
594 738
594 751
594 782
594 810
594 834
594 852
594 860
594 903
594 963
594 966
594 971
594 995
594 999
595 604
595 620
595 695
595 728
595 778
595 804
595 850
595 918
595 948
595 976
595 988
595 989
595 998
596 616
596 645
596 694
596 731
596 736
596 803
596 930
596 958
596 961
596 980
597 654
597 704
597 710
597 745
597 770
597 789
597 792
597 797
597 811
597 848
597 855
597 858
597 875
597 917
597 921
598 620
598 632
598 640
598 641
598 663
598 739
598 751
598 777
598 779
598 791
598 815
598 821
598 882
598 912
598 920
598 971
598 987
599 601
599 607
599 620
599 635
599 681
599 682
599 727
599 750
599 754
599 793
599 827
599 936
599 971
599 986
600 601
600 602
600 623
600 634
600 650
600 672
600 675
600 695
600 744
600 835
600 883
600 884
600 889
600 924
600 941
600 993
601 604
601 607
601 615
601 642
601 658
601 668
601 678
601 746
601 777
601 810
601 814
601 815
601 912
601 951
601 974
601 975
601 977
602 632
602 736
602 740
602 759
602 760
602 813
602 848
602 851
602 858
602 904
602 960
602 962
602 972
602 995
603 651
603 680
603 685
603 705
603 706
603 728
603 764
603 840
603 844
603 881
603 907
603 938
603 949
603 963
604 607
604 691
604 794
604 815
604 878
604 881
604 897
604 937
604 945
604 946
605 634
605 671
605 679
605 754
605 846
605 867
605 892
605 897
605 919
605 977
605 987
606 607
606 610
606 618
606 657
606 689
606 697
606 746
606 755
606 757
606 789
606 817
606 822
606 850
606 863
606 870
606 898
606 992
607 619
607 658
607 681
607 690
607 693
607 720
607 786
607 797
607 825
607 851
607 856
607 912
607 946
607 948
607 960
607 988
607 989
608 620
608 708
608 739
608 753
608 784
608 802
608 842
608 876
608 931
608 983
608 988
609 686
609 697
609 742
609 757
609 769
609 792
609 804
609 886
609 899
609 946
609 970
609 992
609 993
610 632
610 668
610 677
610 692
610 702
610 708
610 763
610 797
610 826
610 835
610 855
610 856
610 873
610 883
610 898
610 906
610 930
611 622
611 648
611 702
611 705
611 733
611 756
611 821
611 857
611 898
611 913
611 917
611 921
611 925
612 658
612 663
612 761
612 819
612 860
612 892
612 920
612 956
612 970
613 620
613 625
613 629
613 642
613 706
613 708
613 713
613 728
613 771
613 810
613 821
613 827
613 833
613 840
613 917
613 938
613 992
614 623
614 624
614 683
614 687
614 727
614 733
614 737
614 773
614 810
614 971
614 981
614 993
615 620
615 631
615 637
615 648
615 667
615 680
615 685
615 691
615 717
615 760
615 782
615 792
615 807
615 832
615 845
615 850
615 899
615 908
615 917
615 943
615 955
616 618
616 635
616 644
616 652
616 660
616 675
616 685
616 710
616 741
616 802
616 819
616 844
616 868
616 909
616 927
616 944
617 685
617 690
617 750
617 759
617 764
617 772
617 789
617 817
617 850
617 859
617 888
617 899
617 917
617 920
617 998
618 631
618 632
618 678
618 679
618 691
618 735
618 739
618 861
618 885
618 906
618 915
618 928
618 943
619 717
619 745
619 772
619 776
619 872
619 873
619 982
620 644
620 653
620 663
620 711
620 716
620 721
620 776
620 805
620 809
620 858
620 895
620 900
620 934
620 985
621 635
621 639
621 643
621 675
621 702
621 722
621 727
621 744
621 757
621 761
621 854
621 968
621 972
621 986
622 637
622 649
622 684
622 721
622 733
622 786
622 793
622 805
622 839
622 863
622 881
623 630
623 631
623 640
623 690
623 699
623 765
623 780
623 805
623 828
623 963
623 995
624 684
624 714
624 730
624 774
624 778
624 806
624 809
624 811
624 816
624 836
624 848
624 906
624 911
624 925
624 928
624 951
624 972
625 636
625 649
625 653
625 668
625 687
625 740
625 837
625 902
625 932
625 943
625 952
625 993
626 633
626 641
626 664
626 685
626 750
626 758
626 795
626 843
626 845
626 864
626 875
626 934
626 935
626 965
626 968
626 976
627 633
627 639
627 709
627 765
627 769
627 937
627 940
627 941
628 631
628 638
628 675
628 708
628 741
628 775
628 825
628 832
628 880
628 938
629 676
629 686
629 775
629 804
629 805
629 812
629 827
629 877
629 926
630 632
630 703
630 708
630 722
630 787
630 820
630 908
630 962
630 964
630 973
631 643
631 653
631 685
631 688
631 691
631 748
631 772
631 778
631 821
631 829
631 839
631 850
631 875
631 898
631 906
631 945
631 975
632 640
632 646
632 673
632 711
632 726
632 758
632 848
632 860
632 893
632 896
632 920
632 951
632 973
633 706
633 798
633 800
633 842
633 857
633 876
633 885
633 913
634 706
634 727
634 729
634 777
634 820
634 830
634 840
634 889
634 950
634 973
634 999
635 696
635 697
635 706
635 713
635 758
635 828
635 897
635 909
635 923
635 949
635 963
635 976
635 985
635 993
636 648
636 711
636 795
636 805
636 848
636 855
636 858
636 890
636 983
637 652
637 673
637 713
637 729
637 730
637 740
637 813
637 866
637 875
637 877
638 640
638 648
638 656
638 667
638 669
638 691
638 693
638 695
638 709
638 713
638 788
638 789
638 794
638 854
638 912
638 918
638 960
638 991
639 674
639 779
639 806
639 843
639 891
639 893
639 899
639 945
639 963
639 967
639 988
639 999
640 706
640 738
640 761
640 800
640 816
640 834
640 882
640 910
640 967
641 646
641 667
641 701
641 714
641 723
641 729
641 739
641 769
641 772
641 795
641 855
641 880
641 906
641 949
641 981
642 652
642 662
642 710
642 713
642 714
642 726
642 730
642 765
642 856
642 879
643 672
643 695
643 698
643 847
643 851
643 962
643 965
643 985
644 670
644 709
644 737
644 753
644 781
644 801
644 805
644 846
644 883
644 904
644 908
644 933
644 934
644 935
644 954
644 962
644 981
645 677
645 691
645 749
645 789
645 808
645 815
645 816
645 839
645 850
645 885
645 938
645 977
646 647
646 678
646 681
646 690
646 714
646 729
646 742
646 758
646 769
646 771
646 774
646 825
646 858
646 876
646 955
646 960
647 657
647 669
647 687
647 706
647 707
647 728
647 729
647 780
647 840
647 909
647 934
647 939
647 953
647 983
647 987
647 989
648 668
648 710
648 716
648 729
648 737
648 796
648 826
648 851
648 866
648 899
648 933
648 958
648 989
649 653
649 726
649 739
649 751
649 758
649 807
649 812
649 826
649 843
649 857
649 872
649 889
649 891
649 918
649 955
649 957
649 968
649 972
649 984
650 715
650 721
650 745
650 801
650 832
650 901
650 942
650 951
650 979
651 653
651 682
651 687
651 696
651 712
651 717
651 738
651 743
651 783
651 800
651 866
651 874
651 882
651 898
651 906
651 960
651 982
651 992
651 996
652 654
652 656
652 687
652 709
652 713
652 829
652 837
652 847
652 851
652 855
652 856
652 863
652 887
652 889
652 938
652 946
653 655
653 679
653 702
653 726
653 771
653 834
653 863
653 907
653 913
653 914
653 927
653 969
653 975
653 980
653 993
654 689
654 837
654 849
654 859
654 903
654 909
654 914
654 964
654 967
655 664
655 678
655 702
655 795
655 803
655 805
655 833
655 866
655 972
655 979
656 682
656 738
656 740
656 760
656 785
656 809
656 873
656 958
656 967
656 972
657 663
657 735
657 849
657 869
657 895
657 909
657 932
657 951
657 974
657 984
658 768
658 802
658 825
658 894
658 901
658 909
658 914
658 942
659 673
659 687
659 733
659 787
659 800
659 851
659 859
659 906
659 924
660 726
660 737
660 834
660 863
660 880
660 948
660 966
660 972
661 755
661 758
661 790
661 835
661 859
661 914
661 924
661 934
661 996
662 731
662 760
662 792
662 801
662 831
662 863
662 870
662 876
662 905
662 921
662 924
662 926
662 929
662 936
662 960
662 984
663 717
663 776
663 780
663 787
663 807
663 816
663 818
663 865
663 871
663 909
663 914
663 922
663 924
663 961
663 970
664 666
664 677
664 685
664 731
664 739
664 758
664 772
664 780
664 789
665 695
665 699
665 730
665 780
665 841
665 857
665 945
665 996
666 699
666 726
666 742
666 778
666 828
666 866
666 873
667 687
667 713
667 730
667 772
667 792
667 793
667 795
667 797
667 807
667 823
667 831
667 849
667 850
667 903
667 942
667 989
668 682
668 708
668 709
668 732
668 791
668 829
668 845
668 846
668 897
668 988
669 691
669 831
669 835
669 877
669 886
669 972
669 981
669 984
669 991
670 740
670 755
670 756
670 793
670 807
670 814
670 837
670 847
670 903
670 958
671 691
671 692
671 697
671 707
671 715
671 724
671 742
671 769
671 838
671 887
671 893
671 901
671 909
671 945
671 965
671 967
672 674
672 720
672 727
672 730
672 742
672 746
672 753
672 757
672 783
672 795
672 805
672 828
672 924
672 949
672 996
673 688
673 700
673 715
673 801
673 820
673 846
673 853
673 973
674 714
674 720
674 745
674 784
674 788
674 794
674 825
674 836
674 847
674 874
674 905
674 974
675 690
675 708
675 718
675 729
675 767
675 777
675 780
675 789
675 791
675 803
675 852
675 871
675 879
675 926
675 931
675 944
675 947
675 956
675 960
676 684
676 696
676 724
676 787
676 808
676 821
676 892
676 912
676 944
676 946
676 952
677 682
677 691
677 692
677 711
677 751
677 752
677 841
677 854
677 865
677 879
677 903
677 979
677 986
678 680
678 755
678 807
678 824
678 829
678 868
678 872
678 885
678 917
678 962
678 970
678 975
678 980
679 749
679 779
679 782
679 810
679 845
679 884
679 908
679 936
679 980
679 982
679 996
679 998
680 698
680 724
680 753
680 857
680 898
680 955
680 971
680 976
681 689
681 713
681 739
681 742
681 781
681 785
681 793
681 840
681 863
681 881
681 888
681 909
681 936
681 948
682 707
682 724
682 727
682 757
682 780
682 840
682 872
682 926
682 964
683 685
683 775
683 794
683 835
683 842
683 846
683 873
683 888
683 898
683 921
683 926
683 941
683 949
683 967
683 984
683 992
684 747
684 772
684 773
684 790
684 849
684 860
684 868
684 895
684 906
684 936
684 940
684 952
684 984
684 996
685 708
685 712
685 754
685 757
685 773
685 789
685 822
685 825
685 872
685 944
685 998
686 734
686 756
686 763
686 770
686 776
686 835
686 837
686 863
686 871
686 892
686 915
686 958
686 965
687 749
687 761
687 828
687 833
687 842
687 855
687 862
687 895
687 930
687 935
687 955
687 968
687 978
688 690
688 701
688 756
688 826
688 829
688 931
688 951
688 953
688 970
689 694
689 756
689 819
689 854
689 874
689 916
689 928
689 957
689 969
689 977
689 990
689 999
690 701
690 702
690 710
690 758
690 779
690 854
690 879
690 978
690 997
691 699
691 749
691 760
691 792
691 805
691 814
691 819
691 825
691 826
691 840
691 852
691 888
691 896
691 932
691 969
692 715
692 790
692 803
692 825
692 830
692 835
692 844
692 849
692 866
692 892
692 918
692 928
692 980
692 992
693 696
693 716
693 733
693 828
693 847
693 862
693 999
694 725
694 782
694 837
694 857
694 863
694 903
694 982
695 732
695 738
695 747
695 836
695 838
695 907
695 924
695 940
695 945
696 698
696 785
696 788
696 920
696 933
696 946
696 968
696 986
697 711
697 716
697 777
697 794
697 809
697 826
697 864
697 930
697 941
697 964
697 965
697 986
697 996
698 708
698 714
698 758
698 788
698 797
698 834
698 848
698 888
698 935
698 996
699 733
699 747
699 782
699 794
699 807
699 820
699 831
699 835
699 843
699 847
699 871
699 882
699 886
699 891
699 897
699 899
699 917
699 923
699 929
699 953
699 971
700 723
700 778
700 794
700 811
700 836
700 877
700 893
700 910
700 942
700 991
701 731
701 740
701 777
701 799
701 824
701 913
701 927
702 711
702 741
702 830
702 845
702 858
702 934
702 952
702 970
703 790
703 874
703 877
703 914
703 917
703 976
704 770
704 785
704 820
704 932
704 978
705 769
705 783
705 821
705 833
705 838
705 851
705 864
705 869
705 875
705 878
705 880
705 888
705 936
705 943
705 978
705 982
706 778
706 836
706 883
706 884
706 890
706 953
706 986
707 708
707 724
707 751
707 767
707 768
707 778
707 819
707 822
707 833
707 872
708 730
708 785
708 833
708 865
708 871
708 943
708 958
708 979
708 980
708 988
709 751
709 767
709 835
709 856
709 864
709 873
709 897
709 938
710 743
710 840
710 843
710 846
710 851
710 855
710 857
710 877
710 892
710 910
710 988
711 715
711 739
711 808
711 812
711 816
711 833
711 853
711 861
711 890
711 917
711 926
711 958
711 975
712 781
712 834
712 843
712 883
712 924
712 933
712 966
712 979
712 996
713 730
713 788
713 815
713 834
713 845
713 861
713 907
713 917
713 944
713 952
713 963
714 715
714 740
714 745
714 749
714 870
714 876
714 915
714 934
714 942
714 965
715 807
715 835
715 879
715 943
715 954
715 988
716 717
716 723
716 734
716 786
716 814
716 873
716 917
716 936
716 957
716 975
716 978
716 999
717 731
717 737
717 760
717 769
717 773
717 815
717 853
717 920
717 957
717 960
717 978
717 984
718 744
718 748
718 755
718 801
718 826
718 845
718 871
718 873
718 881
718 893
718 955
718 968
718 982
718 989
719 720
719 745
719 757
719 772
719 809
719 837
719 839
719 905
719 938
720 728
720 739
720 797
720 808
720 857
720 866
720 880
720 882
720 902
720 933
721 755
721 768
721 814
721 871
721 877
721 879
721 917
721 931
721 950
721 986
721 998
722 728
722 810
722 892
722 894
722 934
722 962
723 732
723 748
723 771
723 773
723 782
723 783
723 821
723 824
723 825
723 832
723 836
723 841
723 873
723 876
723 971
723 992
724 727
724 736
724 749
724 824
724 836
724 864
724 892
724 898
724 907
724 911
724 923
724 963
724 992
725 748
725 763
725 774
725 839
725 857
725 878
725 915
725 973
725 993
726 749
726 766
726 814
726 829
726 899
726 918
726 953
726 990
727 775
727 817
727 868
727 877
727 928
727 957
727 979
727 997
728 733
728 741
728 752
728 757
728 771
728 826
728 830
728 835
728 857
728 882
728 892
728 912
729 746
729 770
729 790
729 845
729 857
729 886
729 925
729 948
729 962
729 969
729 998
730 740
730 751
730 758
730 768
730 799
730 841
730 906
730 925
730 927
730 965
730 976
731 749
731 816
731 819
731 863
731 875
731 887
731 898
731 949
731 974
731 979
731 994
731 997
732 740
732 806
732 821
732 828
732 830
732 865
732 868
732 894
732 900
732 966
732 990
732 995
733 735
733 810
733 811
733 816
733 825
733 946
733 966
733 996
734 760
734 814
734 821
734 893
734 927
735 799
735 816
735 833
735 878
735 881
735 890
735 929
735 956
735 993
736 746
736 761
736 779
736 780
736 840
736 861
736 867
736 880
736 903
736 929
736 984
736 997
737 756
737 778
737 790
737 822
737 867
737 872
737 900
737 920
737 929
737 960
737 966
738 747
738 795
738 879
738 913
738 919
739 741
739 831
739 842
739 864
739 882
739 945
739 963
739 989
739 991
740 745
740 761
740 782
740 807
740 865
740 875
740 889
740 897
740 903
740 917
740 918
740 929
740 955
740 977
741 757
741 790
741 798
741 803
741 814
741 817
741 827
741 855
741 879
741 920
741 923
741 925
741 929
741 936
741 980
742 771
742 793
742 847
742 867
742 877
742 889
742 906
742 908
742 915
742 938
742 943
742 955
743 795
743 818
743 824
743 833
743 845
743 849
743 853
743 890
743 903
743 928
743 963
743 965
743 993
744 753
744 793
744 821
744 853
744 874
744 957
744 959
744 972
744 988
745 751
745 806
745 816
745 843
745 856
745 857
745 899
745 981
746 798
746 842
746 843
746 913
746 937
746 948
746 953
746 993
747 763
747 841
747 858
747 870
747 910
747 913
747 923
748 758
748 772
748 773
748 778
748 781
748 788
748 827
748 838
748 888
748 892
748 897
748 936
748 950
748 953
748 983
749 750
749 754
749 755
749 756
749 766
749 793
749 804
749 825
749 864
749 870
749 887
749 894
749 945
749 952
749 963
750 777
750 796
750 798
750 803
750 825
750 834
750 853
750 887
750 894
750 912
750 954
750 976
751 755
751 783
751 808
751 828
751 867
751 894
751 997
752 763
752 768
752 788
752 855
752 859
752 890
752 903
752 932
752 933
752 940
752 980
752 981
752 984
752 989
753 761
753 773
753 777
753 850
753 858
753 861
753 913
753 944
753 953
753 971
754 758
754 771
754 773
754 777
754 794
754 797
754 833
754 869
754 918
754 926
754 953
754 996
754 997
754 999
755 811
755 882
755 897
755 902
755 916
755 923
755 957
755 960
755 964
755 985
756 795
756 832
756 924
756 960
756 994
757 797
757 820
757 859
757 877
757 886
757 890
757 911
757 912
758 775
758 779
758 809
758 842
758 891
758 951
758 993
759 762
759 776
759 787
759 799
759 848
759 851
759 861
759 862
759 863
759 864
759 911
759 926
759 946
760 785
760 802
760 898
760 923
760 947
761 766
761 775
761 788
761 843
761 847
761 851
761 888
761 953
762 764
762 771
762 790
762 816
763 790
763 817
763 887
763 918
763 951
763 956
763 971
763 998
764 766
764 776
764 799
764 800
764 806
764 809
764 846
764 912
764 946
764 957
764 969
765 803
765 812
765 869
765 911
765 917
765 924
765 933
765 946
765 958
765 960
765 974
766 790
766 815
766 827
766 843
766 848
766 871
766 952
767 778
767 907
767 946
767 964
767 968
767 991
768 838
768 848
768 852
768 863
768 865
768 868
768 882
768 927
768 942
768 966
768 967
768 978
768 982
768 995
768 996
768 998
769 777
769 805
769 829
769 832
769 852
769 856
769 888
769 920
769 933
769 960
769 998
770 776
770 810
770 823
770 871
770 890
770 891
770 924
770 952
770 968
770 994
771 839
771 858
771 860
771 907
771 938
771 940
771 943
771 953
771 986
772 796
772 834
772 926
772 960
772 965
773 837
773 912
773 931
773 941
773 946
773 986
774 778
774 828
774 845
774 891
774 892
774 972
775 779
775 795
775 850
775 858
775 878
775 884
775 888
775 893
775 953
776 785
776 791
776 879
776 942
777 800
777 806
777 811
777 821
777 833
777 846
777 867
777 888
778 837
778 903
778 955
778 961
778 977
778 987
778 997
779 813
779 819
779 830
779 850
779 868
779 941
779 961
780 781
780 812
780 824
780 853
780 872
780 886
780 940
780 944
780 967
780 976
780 983
781 784
781 804
781 839
781 874
781 885
781 890
781 947
781 969
781 999
782 813
782 860
782 899
782 902
782 921
782 942
782 960
783 792
783 807
783 825
783 844
783 904
783 956
783 970
783 974
784 807
784 812
784 826
784 833
784 836
784 837
784 863
784 870
784 925
784 950
784 993
785 798
785 801
785 837
785 864
785 876
785 904
785 948
785 986
785 991
786 836
786 932
786 970
786 981
786 983
787 851
787 881
787 899
787 916
787 920
787 942
787 948
787 949
787 962
787 992
788 804
788 818
788 828
788 842
788 851
788 869
788 903
788 911
788 970
788 972
788 989
789 797
789 799
789 801
789 811
789 820
789 831
789 894
789 910
789 945
790 793
790 808
790 810
790 815
790 835
790 847
790 888
791 800
791 802
791 807
791 823
791 826
791 871
791 898
791 900
792 793
792 818
792 835
792 888
792 894
792 911
792 933
792 960
792 995
793 875
793 876
793 881
793 895
793 899
793 910
793 973
794 796
794 830
794 856
794 861
794 881
794 905
794 950
794 956
794 966
794 979
795 798
795 803
795 807
795 961
795 969
796 809
796 825
796 826
796 835
796 895
796 902
796 914
796 925
796 927
796 971
796 987
796 994
797 814
797 905
797 913
797 916
797 923
798 821
798 857
798 872
798 873
798 883
798 910
799 811
799 821
799 826
799 847
799 848
799 855
799 857
799 896
799 998
800 802
800 817
800 819
800 859
800 869
800 894
800 901
800 944
800 960
800 997
801 823
801 849
801 872
801 930
801 934
801 944
801 998
802 827
802 840
802 905
802 921
802 938
802 967
802 979
802 983
802 997
803 821
803 888
803 892
803 930
803 938
803 965
803 971
804 817
804 859
804 885
804 962
804 983
805 834
805 864
805 886
805 978
805 986
805 993
806 826
806 834
806 859
806 901
806 904
806 920
806 934
806 935
806 939
806 943
806 954
806 989
807 917
807 919
807 929
807 931
807 946
807 956
807 959
807 988
808 817
808 830
808 851
808 853
808 870
808 893
808 909
808 955
808 999
809 830
809 854
809 859
809 879
809 899
809 906
809 948
810 828
810 854
810 891
810 930
810 980
810 995
811 822
811 824
811 831
811 953
811 955
811 975
812 820
812 901
812 998
813 849
813 852
813 870
813 887
813 933
813 943
813 952
813 971
814 817
814 887
814 959
814 984
815 827
815 858
815 882
815 917
815 935
815 958
815 965
816 828
816 839
817 871
817 900
817 929
817 931
817 941
817 971
818 849
818 928
818 939
818 947
819 825
819 830
819 852
819 861
819 958
820 830
820 866
820 903
820 918
820 921
820 952
820 977
820 993
821 830
821 838
821 846
821 892
821 917
821 951
821 966
821 973
821 978
822 871
822 880
822 894
822 946
822 960
822 967
822 976
822 994
822 997
823 829
823 835
823 836
823 863
823 866
823 906
824 863
824 904
824 927
824 929
824 945
824 982
825 840
825 848
825 859
825 876
825 889
825 914
825 920
825 959
825 986
826 873
826 897
826 905
826 917
826 921
826 923
826 931
826 940
826 983
827 835
827 854
827 877
827 897
827 912
827 937
827 944
827 973
828 838
828 864
828 883
828 887
828 906
828 916
829 841
829 871
829 897
829 910
829 961
829 974
829 978
830 869
830 878
830 925
831 835
831 840
831 866
831 959
831 982
832 969
832 977
833 847
833 861
833 880
833 881
833 890
833 942
833 970
833 977
833 984
833 989
833 992
834 853
834 872
834 874
834 921
834 935
835 882
835 888
835 902
836 913
836 916
836 944
836 946
836 947
836 979
837 841
837 866
837 890
837 894
837 956
837 973
837 975
837 976
837 986
837 988
838 862
838 864
838 904
838 922
838 979
839 848
839 888
839 912
839 948
839 957
840 885
840 908
840 912
840 942
840 950
840 981
841 871
841 880
841 881
841 912
841 962
841 993
842 850
842 879
842 915
842 922
842 943
843 859
843 885
843 926
843 938
843 949
843 972
843 977
844 861
844 869
844 872
844 907
844 938
844 942
844 962
844 985
845 864
845 919
845 927
845 946
845 972
846 847
846 869
846 877
846 935
846 958
847 913
847 937
847 938
848 856
848 929
848 987
849 895
849 948
849 974
850 852
850 964
850 972
850 986
850 997
851 882
851 891
851 898
851 921
851 981
852 872
852 906
852 939
853 868
853 889
853 890
853 891
853 895
853 945
853 959
853 983
854 884
854 922
855 891
855 893
855 894
855 895
855 973
855 986
856 885
856 922
857 891
857 903
857 933
857 951
857 962
858 941
858 956
858 968
858 981
859 935
860 948
860 965
861 873
861 944
861 997
862 876
862 885
862 889
862 949
862 964
862 977
863 886
863 898
863 940
863 946
863 981
864 867
864 884
864 887
864 901
864 946
864 948
864 952
864 960
864 988
864 990
865 870
865 890
865 908
865 910
866 908
866 918
866 959
866 965
866 975
866 976
867 879
867 924
867 952
867 956
867 964
867 996
868 886
868 901
868 907
868 998
869 901
869 905
869 920
869 930
869 937
869 953
870 891
870 985
871 938
871 940
871 955
871 958
871 965
871 975
871 980
871 995
872 890
872 906
872 927
872 990
873 893
874 891
874 931
875 906
875 935
875 986
875 989
876 880
876 889
876 895
876 955
876 979
876 987
876 989
877 891
877 911
877 915
877 920
877 953
878 950
878 989
878 996
879 943
879 957
879 965
879 982
879 994
880 920
880 979
880 990
881 908
881 919
881 927
881 959
881 978
881 996
882 894
882 905
882 929
882 974
883 916
883 962
883 991
884 885
884 895
884 920
884 928
884 947
884 971
884 983
885 901
885 924
885 940
886 903
886 932
886 947
887 926
887 930
887 940
887 955
887 992
888 918
888 919
888 925
888 936
888 958
888 983
889 907
889 977
889 982
890 894
890 905
891 910
891 919
891 968
891 971
891 987
892 896
892 913
892 920
894 896
894 904
894 907
894 925
894 929
894 950
894 985
895 948
895 993
896 909
896 945
896 969
897 913
897 914
897 952
897 966
897 999
898 903
898 919
898 960
899 900
899 920
899 964
899 966
899 978
901 914
901 923
901 929
901 977
902 903
902 927
902 932
902 948
902 970
902 984
903 932
903 957
904 952
904 959
904 966
904 969
905 908
905 926
905 963
905 986
905 993
906 953
906 965
906 966
907 946
907 953
908 927
908 933
908 969
909 924
910 919
910 955
910 964
910 967
911 935
913 968
913 978
914 924
914 931
914 949
914 952
914 955
916 922
916 933
916 984
917 930
917 942
917 967
918 922
918 964
919 983
919 991
920 933
920 943
920 944
920 955
920 990
921 948
921 961
922 926
922 936
922 943
922 954
922 958
922 980
923 935
923 988
924 928
924 956
924 961
925 989
926 936
926 950
926 960
926 964
926 968
926 981
927 937
928 936
928 945
928 962
929 948
929 953
930 958
931 939
932 943
932 979
932 994
933 936
933 949
933 953
933 966
933 969
934 951
934 953
934 983
935 947
935 959
935 976
936 962
937 956
938 969
939 948
939 982
939 985
940 942
940 979
942 972
942 981
942 992
943 992
944 945
944 959
944 981
945 975
946 971
947 960
948 976
948 986
948 997
949 983
950 951
950 960
950 986
951 958
951 959
951 970
952 966
952 975
952 985
953 955
953 964
954 988
955 987
956 982
957 972
958 959
958 971
959 996
960 998
961 969
961 986
961 994
964 968
965 988
966 981
967 971
967 986
968 985
968 986
970 971
972 976
973 982
973 998
974 985
975 977
975 989
977 991
978 996
979 983
979 992
980 988
989 998
993 994
