0 38
0 69
0 363
0 606
0 609
1 209
1 286
1 323
1 478
1 737
2 64
2 252
2 313
2 453
2 520
2 629
2 644
3 23
3 253
3 285
3 292
3 374
3 429
3 463
3 477
3 543
3 614
4 27
4 135
4 224
4 295
4 377
4 423
4 657
4 661
5 6
5 119
5 320
5 411
5 481
5 553
6 125
6 242
6 246
6 259
6 351
6 633
6 637
7 100
7 128
7 276
7 320
7 746
8 51
8 187
8 262
8 514
8 548
8 611
9 209
9 245
9 271
9 422
10 70
10 184
10 587
10 600
10 610
10 728
11 104
11 114
11 122
11 335
11 369
11 423
11 500
11 611
11 639
12 17
12 398
12 678
13 233
13 333
13 548
13 631
14 27
14 34
14 64
14 79
14 96
14 103
14 189
14 258
14 483
14 572
15 67
15 382
15 397
15 411
15 480
15 573
15 651
15 653
15 661
16 103
16 295
16 412
16 563
16 698
16 702
17 339
17 341
17 360
17 381
17 427
17 502
17 551
17 565
17 681
18 91
18 291
18 387
18 425
18 459
18 632
19 106
19 278
19 417
19 574
19 595
20 180
20 274
20 360
20 376
20 399
20 409
20 549
20 598
20 686
20 716
21 339
21 344
21 576
21 589
21 598
22 95
22 150
22 240
22 306
22 355
22 396
22 555
22 568
22 724
22 741
23 145
23 192
23 328
23 384
23 421
23 578
23 605
23 710
24 85
24 132
24 157
24 164
24 456
24 518
24 664
24 728
24 735
25 171
25 198
25 255
25 353
25 749
26 132
26 212
26 311
26 397
26 550
27 232
27 244
27 317
27 341
27 631
27 640
27 694
28 62
28 493
28 573
29 66
29 126
29 156
29 261
29 265
29 450
29 474
29 502
30 81
30 111
30 194
30 275
30 364
30 421
30 544
30 623
31 127
31 163
31 284
31 339
31 346
31 424
31 456
31 464
31 510
31 549
31 670
31 733
32 66
32 320
32 568
32 569
32 696
32 724
32 739
33 92
33 303
33 304
33 313
33 321
33 357
33 500
33 630
33 653
34 129
34 286
34 625
34 686
34 698
35 78
35 212
35 442
35 503
35 563
35 617
35 733
35 742
36 95
36 113
36 175
36 176
36 211
36 219
36 311
36 340
36 558
36 658
36 680
37 199
37 208
37 224
37 252
37 309
37 382
37 489
37 527
37 604
37 620
37 651
37 671
38 87
38 100
38 156
38 271
38 478
39 70
39 98
39 141
39 187
39 225
39 349
39 433
39 503
39 506
39 510
39 595
39 685
40 46
40 348
40 359
40 483
40 518
40 557
40 648
41 45
41 104
41 318
41 487
42 147
42 215
42 256
42 344
42 723
43 223
43 224
43 225
43 427
43 540
43 595
43 601
43 620
43 693
43 716
43 726
44 74
44 108
44 265
44 315
44 421
44 674
45 101
45 231
45 232
45 286
45 364
45 423
45 489
45 575
45 579
45 658
45 663
45 685
45 698
46 57
46 178
46 186
46 193
46 336
46 461
46 595
46 644
47 155
47 324
47 411
47 485
47 501
47 506
47 578
47 707
48 89
48 140
48 335
48 428
48 447
48 527
48 532
49 60
49 478
49 527
49 566
49 594
49 748
50 147
50 209
50 288
50 460
50 469
50 543
50 597
51 198
51 334
51 533
51 540
52 120
52 135
52 335
52 572
52 573
52 663
53 70
53 349
53 356
53 365
53 536
53 547
53 583
53 641
53 681
53 707
53 724
54 118
54 199
54 260
54 409
54 442
55 218
55 536
55 556
55 694
55 743
56 130
56 304
56 426
56 544
56 615
56 666
56 715
57 242
57 526
57 611
57 695
57 723
58 107
58 168
58 257
58 286
58 306
58 329
58 426
58 428
58 435
58 473
58 611
58 693
59 109
59 115
59 253
59 426
59 579
59 682
59 711
60 143
60 168
60 208
60 259
60 357
60 358
60 407
60 606
61 85
61 256
61 415
61 446
61 529
61 536
61 577
61 599
61 650
62 122
62 198
62 241
62 519
62 521
62 614
62 677
62 681
62 703
63 88
63 182
63 242
63 266
63 345
63 445
63 485
63 515
63 521
63 604
63 692
64 269
64 340
64 616
64 665
64 689
65 218
65 478
65 646
66 93
66 186
66 336
66 383
66 408
66 602
67 216
67 298
67 439
67 548
68 201
68 260
68 621
68 670
69 72
69 108
69 541
69 630
69 642
69 645
70 76
70 361
70 432
70 494
70 535
70 538
70 600
70 607
70 644
70 659
71 183
71 377
71 442
71 606
71 666
71 711
72 302
72 337
72 413
72 576
72 584
72 664
72 693
73 618
73 736
73 738
74 125
74 135
74 215
74 398
74 419
74 474
74 491
74 583
74 705
75 129
75 154
75 204
75 220
75 322
75 484
75 520
75 741
76 280
76 423
76 463
76 536
76 540
76 563
76 617
77 125
77 431
77 541
77 707
77 732
78 181
78 375
78 483
78 572
79 117
79 144
79 160
79 173
79 568
80 249
80 252
80 400
80 551
81 277
81 399
81 441
81 456
81 475
81 646
81 652
82 105
82 252
82 258
82 310
82 440
82 535
82 608
82 737
83 101
83 114
83 194
83 320
83 345
83 392
83 416
83 463
83 498
83 561
83 653
83 693
83 741
84 133
84 180
84 229
84 248
84 271
84 346
84 514
84 559
84 686
84 740
85 101
85 170
85 234
85 270
85 372
85 388
85 403
85 503
85 597
85 731
86 235
86 286
86 326
86 508
86 515
86 546
86 672
86 744
87 133
87 277
87 330
87 397
87 456
87 473
87 508
88 91
88 108
88 187
88 303
88 437
88 438
88 548
88 658
89 117
89 291
89 426
89 432
89 448
89 480
89 531
89 695
90 433
90 524
90 549
90 658
91 187
91 202
91 291
91 376
91 450
91 481
91 561
91 567
91 660
91 675
91 692
92 254
92 566
92 609
93 241
93 336
93 388
93 467
93 482
93 520
93 613
93 638
94 126
94 214
94 266
94 569
95 254
95 255
95 273
95 294
95 356
95 446
95 487
95 508
95 602
95 650
95 699
95 717
96 110
96 184
96 313
96 340
96 509
96 563
96 606
96 695
96 714
97 131
97 149
97 186
97 201
97 394
97 408
97 456
97 537
97 540
98 222
98 279
98 336
98 355
98 361
98 399
98 402
98 455
98 642
98 651
99 105
99 134
99 135
99 225
99 257
99 363
99 377
99 490
99 626
99 633
99 658
99 663
100 155
100 294
100 456
100 465
100 480
100 586
100 633
100 732
101 135
101 171
101 205
101 532
101 663
101 690
102 105
102 379
102 491
102 512
102 571
103 134
103 165
103 198
103 273
103 351
103 370
103 432
103 460
103 488
103 530
103 577
103 695
103 716
104 155
104 177
104 192
104 346
104 402
104 444
104 570
104 597
104 679
104 708
104 718
104 728
104 741
105 140
105 163
105 309
105 465
106 110
106 422
106 555
106 585
106 590
107 165
107 199
107 238
107 284
107 308
107 321
107 354
107 483
107 497
107 504
107 694
108 243
108 264
108 541
108 679
108 703
108 738
108 747
109 142
109 150
109 169
109 196
109 252
109 268
109 660
109 665
109 725
110 141
110 363
110 436
110 603
110 658
110 712
110 745
111 161
111 165
111 241
111 249
111 396
111 488
111 584
111 596
111 668
112 206
112 208
112 255
112 309
112 359
112 375
112 408
112 475
112 673
113 114
113 128
113 208
113 291
113 385
113 691
114 350
114 399
114 550
114 562
114 680
115 368
115 474
115 486
116 174
116 215
116 298
116 335
116 357
116 597
116 685
117 152
117 190
117 199
117 311
117 492
117 532
117 636
118 142
118 161
118 264
118 363
118 414
118 468
118 541
118 680
119 139
119 153
119 247
119 294
119 345
119 354
119 594
120 188
120 378
120 487
120 513
120 582
121 273
121 280
121 400
121 422
121 440
121 551
121 634
121 738
122 193
122 235
122 240
122 315
122 329
122 390
122 499
122 532
122 696
123 224
123 233
123 250
123 353
123 391
123 419
123 428
123 438
123 474
123 582
124 156
124 248
124 628
124 637
124 739
125 298
125 395
125 572
125 577
125 655
125 678
125 704
126 203
126 209
126 292
126 307
126 405
126 728
127 167
127 557
127 585
127 594
127 665
127 721
128 443
128 497
128 732
128 735
128 743
129 335
129 471
129 615
129 636
129 662
130 244
130 274
130 442
130 550
130 602
131 138
131 527
131 538
131 539
131 616
132 159
132 232
132 504
132 569
132 612
133 428
133 673
134 334
134 359
134 446
134 460
134 463
134 577
135 308
135 313
135 423
135 561
135 575
135 717
136 137
136 181
136 187
136 193
136 232
136 248
136 577
136 595
136 654
136 655
137 581
138 242
138 402
138 555
138 598
138 612
138 661
139 153
139 157
139 289
139 485
139 520
139 556
139 735
140 188
140 373
140 460
140 531
140 578
140 701
140 749
141 163
142 182
142 224
142 408
142 581
142 590
142 630
142 657
142 664
143 147
143 191
143 237
143 414
143 461
143 473
143 663
143 669
144 160
144 215
144 393
144 394
144 489
144 532
144 641
144 689
144 723
145 164
145 244
145 307
145 311
145 331
145 406
145 472
146 147
146 186
146 210
146 251
146 254
146 419
146 702
147 167
147 189
147 575
148 196
148 235
148 283
148 333
148 385
148 463
148 555
148 587
148 697
148 712
149 406
149 407
149 531
149 634
149 688
150 207
150 215
150 233
150 339
150 495
150 569
150 628
150 688
150 743
151 152
151 217
151 301
151 314
151 316
151 351
151 546
151 613
151 669
151 694
151 730
152 162
152 211
152 388
152 434
152 568
152 643
152 653
153 308
153 382
153 428
153 519
153 528
153 563
153 668
153 733
153 743
154 273
154 307
154 370
154 377
154 467
154 706
155 281
155 308
155 365
155 396
155 666
156 185
156 228
156 236
156 271
156 298
156 502
156 513
156 722
157 394
157 507
157 511
157 623
157 626
157 631
157 697
158 266
158 287
158 551
158 561
158 607
158 656
158 670
158 715
158 730
159 393
159 596
160 182
160 325
160 332
160 452
160 522
160 543
160 621
160 691
161 235
161 299
161 430
161 727
162 198
162 208
162 277
162 288
162 324
162 422
163 254
163 332
163 368
163 421
163 470
163 630
163 674
164 195
164 223
164 273
164 523
164 582
164 629
164 664
164 718
165 225
165 263
165 300
165 343
165 383
165 384
165 400
165 435
165 444
165 647
165 727
166 318
166 344
166 514
166 566
166 587
167 202
167 332
167 491
167 529
167 549
168 175
168 376
168 545
169 171
169 205
169 208
169 254
169 714
170 192
170 316
170 504
171 180
171 208
171 219
171 383
171 455
171 564
171 613
171 643
172 232
172 289
172 500
172 562
172 614
172 648
172 672
173 310
173 373
173 375
174 192
174 236
174 331
174 497
174 551
176 208
176 485
176 513
176 551
176 601
176 604
176 703
177 266
177 324
177 613
178 210
178 332
178 356
178 479
178 552
178 697
178 727
179 320
179 426
179 445
179 477
179 596
179 705
180 363
180 386
180 522
180 560
180 576
180 685
181 286
181 326
181 346
181 453
181 512
181 528
181 627
181 631
181 726
182 306
182 345
182 375
182 405
182 588
182 688
183 299
183 302
183 311
183 418
183 487
184 431
184 573
184 631
184 662
184 705
185 215
185 327
185 369
185 439
185 528
185 617
185 682
186 294
186 349
186 414
186 633
186 701
186 710
187 395
187 502
187 628
187 630
187 725
187 733
187 735
187 747
188 305
188 550
188 563
188 616
188 643
188 746
189 225
189 341
189 392
189 596
189 599
189 631
189 637
189 688
190 222
190 252
190 569
190 591
190 722
191 282
191 306
191 403
191 461
191 656
191 712
191 730
192 212
192 285
192 538
192 607
192 620
192 696
192 703
193 533
193 564
193 739
194 253
194 293
194 371
194 422
194 471
194 595
194 668
194 690
195 213
195 339
195 378
195 489
195 705
196 320
196 393
196 538
196 632
196 717
197 264
197 321
197 519
197 520
197 679
198 217
198 256
198 257
198 312
198 340
198 474
198 500
198 504
198 525
198 618
198 709
198 737
199 209
199 250
199 552
199 599
199 639
200 207
200 388
200 428
200 512
200 544
200 558
200 591
200 623
201 236
201 492
201 555
201 598
201 640
202 270
202 322
202 426
202 450
202 698
202 729
203 304
203 308
203 317
203 343
203 385
203 397
203 434
203 455
203 664
204 285
204 387
204 483
204 509
204 516
204 559
204 717
205 575
205 605
206 508
206 667
206 745
207 287
207 391
207 507
207 530
207 722
208 427
208 438
208 522
209 283
209 343
209 364
209 493
209 622
209 673
209 695
210 219
210 351
210 363
210 426
210 475
210 507
210 571
210 602
210 622
210 652
211 304
211 390
211 394
211 554
211 669
212 228
212 399
212 580
212 589
212 658
212 676
212 689
212 730
213 264
213 295
213 589
213 593
214 224
214 270
214 380
214 447
214 456
214 479
214 495
214 598
215 435
215 487
215 506
215 538
215 679
215 715
216 497
216 572
216 585
216 715
216 744
217 232
217 364
217 430
217 463
217 676
218 292
218 375
218 493
218 707
219 260
219 365
219 435
219 626
219 694
220 563
220 679
220 684
221 225
221 318
221 342
221 363
221 368
221 655
222 391
222 515
222 555
222 667
223 260
223 373
223 410
223 420
223 442
224 279
224 302
224 339
224 372
224 457
224 505
224 596
224 648
224 672
224 685
225 254
225 313
225 522
225 610
226 441
226 558
226 601
227 367
227 415
227 426
227 539
227 585
227 715
228 267
228 286
228 398
228 408
228 435
228 578
228 610
228 649
228 652
229 248
229 427
229 460
229 507
229 557
229 570
229 571
229 586
229 661
229 735
230 268
230 386
230 501
230 560
230 729
231 331
231 345
231 351
231 402
231 462
231 609
231 698
232 247
232 474
232 542
232 546
232 683
232 724
233 273
233 286
233 368
233 377
233 389
233 468
233 598
233 665
233 683
234 245
234 496
234 503
234 581
234 591
234 602
234 693
235 256
235 357
235 380
235 524
236 364
236 405
237 310
237 424
237 573
237 603
237 697
238 303
238 645
238 710
238 719
239 273
239 426
240 360
240 392
240 499
240 558
241 480
241 528
241 633
242 422
242 580
242 633
243 318
243 375
243 442
243 469
243 507
244 383
244 403
244 418
244 495
244 642
244 688
244 746
245 317
245 581
245 607
245 671
245 734
246 268
246 421
246 507
246 511
246 539
247 276
247 292
247 437
247 449
247 511
247 549
248 262
248 510
248 604
249 307
249 314
249 386
249 509
249 566
249 587
249 588
250 421
250 656
250 672
251 282
251 528
251 669
251 677
252 282
252 288
252 315
252 463
252 532
252 684
253 321
253 427
253 507
253 715
253 729
254 311
254 600
254 610
254 708
254 719
255 515
255 671
255 682
255 710
255 748
256 324
256 342
256 398
256 483
256 537
256 652
257 314
257 448
257 719
258 280
258 293
258 294
258 395
258 405
258 416
258 539
258 594
259 446
260 286
260 367
260 395
260 455
260 486
260 521
260 552
260 633
260 694
261 392
261 413
261 513
261 616
261 695
262 293
262 443
262 474
262 639
262 718
263 321
263 341
263 478
264 287
264 383
264 404
264 446
264 496
264 595
264 645
264 727
265 297
265 349
265 411
265 452
265 549
265 616
265 640
266 329
266 453
267 374
267 432
267 479
267 508
267 735
268 433
268 445
268 496
268 511
269 426
269 434
269 573
270 314
270 487
270 500
270 566
271 344
271 377
271 470
271 574
271 735
272 324
272 352
272 487
272 718
272 729
273 353
273 530
274 356
274 466
274 488
274 647
274 721
275 373
275 436
275 482
275 536
276 283
276 293
276 305
276 321
276 368
276 624
276 703
277 347
277 390
277 568
277 633
277 679
277 710
278 336
278 428
278 438
278 442
278 463
278 598
278 729
279 358
279 385
279 561
279 658
279 718
280 320
280 339
280 555
280 664
281 283
281 412
281 457
281 550
281 698
281 726
282 358
282 595
282 602
282 653
282 672
283 305
283 512
283 524
283 607
283 676
284 287
284 347
284 415
284 628
286 310
286 370
286 465
286 468
286 541
286 643
286 660
287 373
287 408
287 517
287 536
287 647
288 302
288 391
289 415
289 465
290 601
291 364
291 369
291 377
291 445
291 607
291 611
291 721
292 509
292 578
292 594
292 642
292 710
293 314
293 328
293 340
293 378
293 418
293 460
293 491
293 573
293 627
293 642
293 662
293 672
293 682
293 719
294 306
294 383
294 585
294 591
294 647
295 430
295 700
295 729
296 547
296 651
297 490
297 732
298 521
299 315
299 454
299 518
299 530
299 557
300 467
300 657
300 713
301 471
301 474
301 541
301 557
301 573
301 618
301 731
302 307
302 314
302 361
302 377
302 500
302 700
302 703
303 428
303 454
303 493
303 697
304 374
304 414
304 474
304 481
304 501
304 704
304 747
305 320
305 573
305 715
306 526
307 309
307 361
307 460
307 577
307 616
308 325
308 343
308 344
308 616
308 731
309 320
309 378
309 523
309 656
310 366
310 571
310 587
311 374
311 654
312 572
312 575
312 679
312 685
312 725
313 367
313 403
313 560
314 340
314 427
314 534
314 550
315 519
315 651
315 692
315 740
315 749
316 334
316 462
316 506
316 685
316 699
316 701
317 476
317 509
317 553
317 575
317 577
317 605
317 674
317 684
317 693
317 702
318 399
318 406
318 464
318 545
318 733
319 334
319 400
319 435
319 467
319 503
319 547
319 600
319 668
319 703
319 730
319 744
320 597
321 389
321 533
321 594
321 623
321 685
322 389
322 401
322 415
322 418
322 478
322 594
322 622
322 626
322 672
323 382
323 510
323 539
323 571
323 592
324 614
324 621
324 635
324 636
324 712
325 338
325 432
325 488
325 702
326 365
326 460
326 635
326 697
327 379
327 517
327 643
327 744
328 423
328 450
328 548
328 573
328 605
328 630
328 634
328 668
328 689
328 694
328 712
329 599
329 658
329 671
330 373
330 432
330 450
330 618
330 649
330 744
331 391
331 524
331 540
331 574
331 586
331 646
331 693
332 740
333 465
333 539
333 683
333 712
334 356
334 379
334 600
334 615
334 640
335 493
335 638
335 662
335 743
336 510
336 635
337 404
337 436
337 488
337 504
337 544
337 550
337 632
337 644
337 652
337 682
338 339
338 465
338 744
339 533
339 590
339 601
339 676
340 465
340 527
340 655
340 711
340 729
341 376
341 438
341 530
341 572
341 576
341 603
341 718
342 423
342 460
342 506
342 736
343 360
343 371
343 404
343 468
343 531
343 577
343 601
343 734
344 372
344 408
344 664
344 671
345 360
345 536
345 647
346 351
346 362
346 492
347 529
347 532
347 633
347 693
348 387
348 597
348 627
348 638
348 642
348 670
348 704
349 406
350 446
350 468
350 579
350 599
350 726
351 368
351 394
351 420
351 471
351 519
352 357
352 694
352 714
353 392
353 403
353 456
353 516
353 545
353 616
353 631
353 708
354 496
354 711
355 379
355 449
355 488
355 499
355 555
355 604
355 629
356 549
356 663
356 731
357 405
357 460
357 473
357 554
357 643
357 652
357 714
358 387
358 397
358 416
358 447
358 473
358 503
359 393
359 460
359 674
360 435
360 440
360 592
360 723
361 506
361 563
361 586
361 616
362 457
362 544
362 586
363 429
363 504
363 561
363 574
363 667
363 712
364 508
364 604
364 607
365 386
365 393
365 517
365 565
365 575
365 724
366 371
366 375
366 440
366 487
366 579
366 592
367 407
367 412
367 418
367 420
367 429
367 557
367 716
369 420
369 575
369 653
370 424
370 439
371 489
372 490
372 536
372 597
372 647
372 652
372 653
372 655
372 693
372 731
373 434
373 586
373 682
374 520
374 678
375 407
375 605
375 695
375 717
376 614
376 650
376 651
376 680
377 400
377 617
378 450
378 572
378 672
378 742
379 555
379 557
379 611
379 637
380 562
380 580
380 629
380 655
380 715
381 397
381 519
381 628
381 679
382 399
382 447
382 472
382 510
382 536
382 592
382 599
382 642
382 682
383 624
383 670
384 405
384 442
384 596
385 392
385 428
385 624
386 441
386 477
386 633
386 748
387 389
387 479
387 518
387 677
387 700
387 726
388 457
388 493
388 523
388 549
388 569
389 454
390 559
390 674
391 402
391 469
391 552
391 652
392 640
392 693
393 485
393 583
393 694
393 716
393 732
394 510
394 521
394 553
395 400
395 459
395 527
395 597
396 446
396 473
396 525
396 636
396 680
396 683
397 405
397 481
398 451
398 490
398 634
398 656
399 478
399 483
399 523
399 536
399 709
399 747
400 404
400 463
400 529
400 532
400 556
401 405
401 523
401 619
401 624
401 690
402 444
402 597
402 703
403 486
403 487
403 594
403 658
404 551
404 553
404 593
405 418
405 600
405 626
405 666
405 688
406 447
406 473
406 498
406 630
406 711
407 442
407 544
407 565
407 695
408 555
408 607
408 671
409 503
409 506
409 579
410 568
411 469
412 488
412 513
412 596
412 704
412 710
412 727
413 545
413 606
413 733
414 645
415 470
415 562
415 567
415 576
415 679
416 441
416 481
416 576
416 734
417 561
417 617
417 670
417 700
417 725
417 736
418 451
418 472
418 525
418 577
418 610
418 650
418 705
418 728
419 547
419 617
419 711
420 470
420 534
420 565
420 748
421 503
421 612
421 621
421 649
421 741
422 503
422 697
423 688
423 695
424 475
424 533
424 571
425 465
425 504
425 576
425 649
426 456
426 584
427 458
428 460
428 475
428 540
428 592
428 614
428 710
428 722
429 516
429 520
429 524
429 552
429 617
429 691
430 553
430 571
430 631
431 458
431 626
432 645
433 624
433 740
434 475
434 525
434 573
435 576
436 732
437 552
437 641
438 547
438 747
439 577
440 451
440 639
440 738
441 474
441 523
441 589
441 628
442 457
442 500
442 574
442 717
443 559
443 568
443 707
444 572
444 646
444 668
445 700
446 507
446 731
447 570
447 643
447 728
447 729
448 633
449 538
449 723
450 495
450 555
451 647
452 511
452 708
453 479
453 489
453 578
453 589
453 621
453 659
453 738
454 464
454 661
455 597
455 681
455 705
456 739
457 530
458 499
458 602
458 654
458 682
458 748
459 493
459 560
459 603
459 682
459 686
459 744
460 523
461 488
461 739
462 522
462 689
462 737
463 485
463 494
464 586
464 628
465 743
466 497
466 507
468 600
468 655
468 667
468 688
469 500
469 555
469 604
470 550
470 620
470 643
470 659
471 624
471 736
473 606
473 647
474 507
474 626
474 630
474 701
474 736
474 740
475 517
475 540
475 563
475 616
475 726
476 569
477 662
478 553
478 672
478 676
478 683
478 723
478 744
480 586
480 610
480 745
481 485
481 525
482 507
482 566
482 696
483 494
484 511
484 560
484 568
484 674
484 686
484 702
485 550
485 663
485 666
485 710
486 528
486 647
486 741
487 574
487 589
488 495
488 590
488 676
488 711
488 746
489 549
489 587
489 612
489 640
490 511
490 587
490 669
491 567
491 581
491 594
491 706
492 578
492 652
492 693
492 704
493 549
493 741
494 588
494 614
495 539
495 675
495 724
496 668
496 689
496 721
497 552
497 672
497 734
499 505
499 725
500 550
500 655
500 667
501 535
501 704
502 531
502 554
502 579
503 628
503 637
503 707
504 547
504 680
505 579
505 740
506 524
506 559
506 599
506 612
506 712
506 734
507 580
507 598
507 677
507 713
507 730
508 573
508 674
508 684
508 744
509 553
509 579
509 646
510 580
510 702
511 642
511 701
511 734
512 573
512 648
514 584
514 705
515 518
515 559
515 640
515 678
515 685
515 686
516 563
516 742
517 735
518 640
518 726
519 610
520 626
520 702
521 606
521 611
521 687
521 695
521 697
522 678
523 570
523 604
523 678
523 709
524 558
524 623
524 632
525 539
525 550
525 592
525 709
526 719
527 575
527 639
527 668
527 709
528 628
529 607
529 701
529 748
530 535
530 586
530 589
530 608
530 643
530 722
532 695
533 618
533 624
533 655
533 741
534 632
534 640
534 656
534 744
535 552
535 600
535 736
536 661
536 688
536 697
537 705
538 540
538 542
538 643
538 679
538 687
538 736
540 612
540 685
540 726
541 572
541 616
541 680
542 562
542 602
542 666
544 695
544 735
545 606
545 657
545 709
545 717
545 737
546 602
546 702
547 633
548 552
548 610
548 694
549 589
550 577
550 594
550 732
550 736
551 686
551 701
552 566
552 659
553 703
553 734
554 584
554 640
554 647
554 654
555 570
555 690
555 706
556 668
557 707
557 709
557 745
558 566
558 604
558 674
561 619
561 642
561 647
562 565
563 680
563 739
564 742
565 652
565 661
565 678
565 704
566 623
567 584
567 636
567 698
567 703
568 685
569 598
569 628
569 680
571 646
572 595
573 620
573 704
574 590
574 593
574 647
576 591
576 605
576 728
578 652
578 656
578 709
580 675
581 742
583 713
584 589
584 604
584 608
584 674
587 599
587 723
588 716
589 628
589 664
590 615
590 659
590 701
590 707
591 596
591 739
592 630
593 702
593 733
594 600
594 684
595 633
596 614
597 617
597 649
598 662
599 658
600 657
601 614
601 697
601 717
602 673
602 682
603 635
604 688
605 652
605 715
606 637
606 731
607 656
607 710
608 644
608 735
610 628
612 726
614 615
614 616
614 670
615 740
616 639
616 701
616 711
616 723
617 657
617 679
617 735
618 659
618 684
618 727
619 673
620 719
621 656
624 678
624 731
625 650
625 696
626 654
627 720
628 683
628 738
629 657
629 666
630 671
630 708
631 702
632 681
633 640
633 731
634 692
634 728
635 645
636 648
636 668
636 703
637 730
638 745
639 672
640 657
641 679
641 729
642 675
645 677
647 726
649 728
650 675
650 687
650 747
653 657
654 673
654 692
655 718
655 738
656 744
660 697
661 691
663 744
664 713
664 719
665 680
666 729
667 716
667 722
668 727
670 710
670 726
671 708
672 702
672 735
672 738
676 700
682 700
683 695
684 685
688 720
691 723
693 694
694 707
696 733
698 712
699 711
699 744
705 744
707 719
710 712
711 734
714 733
717 747
720 749
