0 14
0 109
0 185
0 233
0 314
0 441
1 43
1 104
1 176
1 254
1 345
1 356
1 495
2 83
2 258
2 267
2 301
2 398
2 399
3 29
3 100
3 137
3 219
3 245
3 386
4 22
4 89
4 116
4 174
4 306
4 317
4 363
4 411
4 432
4 478
4 480
5 86
5 338
5 368
5 413
5 425
6 96
6 112
6 162
6 176
6 254
6 286
6 380
7 25
7 53
7 263
7 320
7 334
7 432
7 463
7 488
7 492
7 495
8 15
8 22
8 65
8 67
8 114
8 117
8 135
8 214
8 247
8 252
8 455
9 43
9 93
9 116
9 119
9 138
9 199
9 228
9 310
9 427
9 480
9 484
10 62
10 143
10 278
10 356
11 181
11 347
11 366
11 372
11 461
12 21
12 123
12 138
12 214
12 375
12 460
13 29
13 148
13 183
13 232
13 240
13 242
13 269
13 275
13 281
13 418
14 18
14 20
14 27
14 75
14 189
14 208
14 474
15 17
15 70
15 74
15 140
15 194
15 195
15 243
15 399
15 409
16 28
16 35
16 82
16 281
16 327
16 333
16 431
17 39
17 66
17 85
17 145
17 223
17 227
17 251
17 285
17 316
18 69
18 122
18 159
18 270
18 275
18 352
18 381
19 48
19 51
19 178
19 238
19 270
19 353
19 361
19 463
19 470
19 494
20 58
20 126
20 173
20 220
20 268
20 304
20 395
20 430
20 433
21 151
21 304
21 398
21 465
21 476
21 490
22 83
22 176
22 273
22 336
23 92
23 116
23 189
23 285
23 342
23 492
24 70
24 134
24 190
24 205
24 206
24 350
24 374
24 401
24 404
24 410
24 420
24 473
25 326
25 333
25 345
25 403
26 77
26 185
26 267
26 305
26 430
26 469
26 491
27 95
27 101
27 283
27 303
27 403
27 407
28 132
28 192
28 242
28 263
28 365
28 388
28 468
29 72
29 78
29 141
29 232
29 267
29 298
30 36
30 63
30 186
30 212
30 219
30 266
30 308
30 310
30 331
30 333
30 343
30 494
31 48
31 123
31 159
31 293
31 311
31 356
31 385
31 456
32 72
32 92
32 140
32 247
32 248
32 254
32 332
32 441
32 449
33 60
33 92
33 118
33 149
33 201
33 207
33 257
33 268
33 298
33 434
33 447
34 66
34 106
34 113
34 219
34 251
34 324
34 417
34 463
35 49
35 120
35 124
35 138
35 207
35 240
35 357
35 463
36 125
36 244
36 296
36 371
36 420
36 453
37 59
37 90
37 92
37 181
37 228
37 279
37 440
38 140
38 184
38 219
38 232
38 348
39 61
39 135
39 160
39 308
39 465
40 46
40 176
40 232
40 322
40 383
41 121
41 150
41 178
41 202
41 248
41 376
41 466
41 473
41 478
41 494
42 94
42 141
42 178
42 206
43 60
43 252
43 376
44 60
44 126
44 193
44 218
44 244
44 271
44 372
44 374
44 448
45 383
45 398
45 404
45 454
46 88
46 155
46 305
46 311
46 388
46 417
46 422
46 440
46 443
46 453
46 455
47 59
47 173
47 239
47 279
47 299
47 330
47 420
47 429
47 448
48 238
48 325
48 395
48 397
49 61
49 82
49 128
49 220
49 247
49 291
49 357
49 463
49 468
49 478
50 107
50 121
50 133
50 171
50 245
50 497
51 77
51 115
51 388
52 72
52 131
52 226
52 233
52 304
52 361
52 362
52 366
52 410
52 459
52 460
52 484
53 114
53 220
53 264
53 375
53 386
53 486
53 490
54 59
54 90
54 117
54 207
54 250
54 323
54 350
54 352
54 498
55 137
55 337
55 403
55 436
55 462
56 124
56 155
56 333
56 418
56 425
56 460
56 497
57 63
57 152
57 224
57 267
57 469
58 97
58 150
58 181
58 352
58 431
59 60
59 73
59 82
59 121
59 201
59 217
59 301
59 481
59 484
59 489
59 498
60 102
60 126
60 134
60 155
60 163
60 230
60 235
60 258
60 467
61 65
61 120
61 135
61 158
61 184
61 204
61 280
61 299
61 341
61 390
61 444
61 461
62 156
62 232
62 429
62 469
62 471
63 78
63 191
63 365
63 388
63 459
63 460
63 498
64 82
64 265
64 283
64 318
64 319
64 414
65 74
65 95
65 103
65 113
65 207
65 286
65 383
65 416
65 440
66 82
66 92
66 157
66 166
66 169
66 212
66 329
66 387
66 401
66 404
66 409
67 231
67 243
67 244
67 281
67 285
67 361
67 445
67 450
67 471
68 139
68 205
68 230
68 300
68 479
69 89
69 104
69 184
69 202
69 255
69 265
69 403
69 441
69 475
70 106
70 115
70 133
70 159
70 189
70 198
70 409
70 459
71 100
71 232
71 245
71 338
72 77
72 181
72 296
72 448
73 116
73 176
73 222
73 254
73 404
74 131
74 204
74 247
74 313
74 384
74 413
74 496
75 318
75 372
75 475
76 298
76 390
77 85
77 110
77 112
77 133
77 262
77 393
77 428
77 432
78 118
78 177
78 201
78 238
78 301
78 335
78 368
78 486
78 496
79 121
79 241
79 249
79 279
79 317
79 485
80 106
80 132
80 154
80 174
80 196
80 258
80 313
80 345
80 360
80 433
80 463
80 485
81 226
81 247
81 293
81 299
81 361
82 147
82 187
82 191
82 194
82 286
82 296
82 339
82 430
82 482
83 129
83 237
83 349
83 355
83 411
84 255
84 276
84 298
84 325
84 433
84 473
84 479
85 146
85 231
85 319
85 400
85 420
86 146
86 162
86 307
86 322
86 382
86 393
86 408
86 459
86 473
87 115
87 382
87 386
87 497
88 126
88 132
88 251
88 295
88 321
88 322
88 324
88 374
88 446
88 497
89 107
89 247
89 286
89 351
89 372
89 406
89 421
90 301
90 346
90 380
90 423
90 447
90 483
91 186
91 190
91 245
91 262
91 295
91 323
91 378
91 396
91 412
91 420
92 125
92 199
92 236
92 261
92 325
92 351
92 382
92 390
92 427
92 492
93 175
93 190
93 264
93 297
93 354
93 420
93 423
93 454
93 499
94 273
94 287
94 308
94 443
94 454
95 133
95 137
95 243
95 251
95 286
95 321
95 463
96 117
96 173
96 203
96 264
96 268
96 380
96 417
96 432
97 233
97 306
97 479
98 107
98 143
98 188
98 347
98 405
98 479
99 122
99 173
99 252
99 266
99 294
99 399
99 461
100 105
100 285
100 406
101 118
101 173
101 312
102 137
102 211
102 231
102 232
102 241
102 348
102 366
102 368
102 439
102 455
103 161
103 311
103 334
103 353
103 374
103 383
103 422
103 438
104 191
104 273
104 348
104 350
104 400
104 409
104 433
105 241
105 247
105 286
105 317
105 320
105 324
105 355
105 467
106 122
106 153
106 158
106 216
106 275
106 306
106 349
106 403
106 405
106 415
107 161
107 256
107 260
107 283
107 351
107 364
107 377
108 226
108 415
108 451
109 157
109 167
109 200
109 264
109 337
109 365
110 114
110 281
110 331
110 468
111 154
111 178
111 185
111 203
111 316
112 227
112 238
112 356
112 382
112 493
113 259
113 286
113 428
113 457
113 464
114 131
114 147
114 202
114 241
114 262
114 321
114 356
114 455
115 177
115 202
115 224
115 312
115 344
115 494
115 497
116 125
116 168
116 225
116 242
116 293
116 339
116 358
116 475
116 486
117 140
117 180
117 198
117 203
117 247
117 249
117 280
117 288
117 290
117 311
117 317
117 341
117 352
117 455
118 126
118 191
118 270
118 315
118 406
118 478
119 223
119 237
119 238
119 312
119 332
119 388
119 412
119 425
120 354
120 383
120 457
120 468
121 157
121 177
121 288
121 352
121 364
121 416
121 430
122 186
122 263
122 489
123 218
123 269
123 332
123 341
123 422
124 130
124 132
124 166
124 337
124 365
124 376
125 166
125 288
125 418
126 134
126 251
126 329
126 399
127 141
127 243
127 398
127 445
127 452
127 481
128 181
128 381
128 386
129 141
129 220
129 486
130 178
130 363
130 416
130 418
130 456
130 496
131 206
131 220
131 261
131 464
131 497
132 201
132 384
132 403
133 150
133 219
133 270
133 300
133 421
133 445
134 231
134 329
134 427
134 483
135 172
135 204
135 255
135 270
135 311
135 436
135 477
136 215
136 323
136 426
137 168
137 211
137 230
137 359
137 483
137 490
138 150
138 310
138 377
138 395
139 141
139 149
139 167
139 209
139 316
139 336
139 360
139 489
140 181
140 384
140 466
140 473
141 311
141 330
141 361
141 399
141 428
141 435
141 489
141 498
142 171
142 200
142 216
142 297
142 329
142 395
142 475
142 496
143 187
143 193
143 216
143 342
144 162
144 353
144 454
145 188
145 267
145 321
146 155
146 186
146 235
146 340
146 425
146 490
147 180
147 230
147 381
148 188
148 204
148 409
149 185
149 204
149 255
149 261
149 344
149 425
150 224
150 292
150 294
150 425
150 436
150 495
151 229
151 245
151 271
151 386
151 391
152 163
152 204
152 379
152 392
153 274
153 319
153 474
154 219
154 250
154 253
154 261
154 315
154 364
154 469
155 190
155 212
155 308
155 331
155 381
156 252
156 401
156 448
156 477
157 215
158 335
158 434
158 435
158 475
158 492
159 221
159 278
159 453
159 468
159 476
160 189
160 201
160 324
160 344
160 413
160 421
160 447
160 493
161 164
161 259
161 382
161 393
162 210
162 324
162 328
162 365
162 452
162 465
163 214
163 424
164 364
164 405
164 442
164 450
165 184
165 220
165 363
165 365
165 436
165 494
166 227
166 276
166 285
166 337
166 370
167 190
167 220
167 311
167 339
167 384
167 387
167 459
168 265
168 302
168 382
168 413
168 421
168 470
169 184
169 220
169 353
169 396
169 424
170 203
170 322
171 173
171 191
171 243
171 316
172 293
172 297
172 410
173 233
173 274
173 334
173 335
173 445
174 217
174 431
174 483
175 190
175 256
175 312
175 354
175 404
176 325
176 391
176 423
176 465
176 486
177 243
177 253
177 264
177 291
177 486
178 206
178 321
178 350
178 393
178 435
179 276
179 318
179 329
179 390
179 409
180 303
180 312
180 381
181 203
181 288
181 298
181 338
181 407
181 409
181 417
181 421
181 435
181 477
182 228
182 273
182 276
182 366
182 430
182 474
183 266
183 327
183 433
183 466
184 243
184 351
184 447
184 470
184 478
185 362
185 441
185 498
186 189
186 224
186 250
186 257
186 275
186 414
186 482
186 494
187 194
187 204
187 223
187 323
187 388
187 487
188 330
188 357
188 383
188 478
189 256
189 464
190 238
190 240
190 251
190 381
190 434
190 492
191 428
191 499
192 291
192 315
193 195
193 262
193 312
193 401
193 460
194 266
194 365
194 407
194 419
195 282
195 368
195 369
196 219
196 309
196 313
196 353
196 354
196 357
196 483
197 216
197 217
197 249
197 277
197 348
197 492
198 222
198 271
198 286
198 343
198 369
198 492
199 227
199 251
199 276
199 459
200 295
200 333
200 350
200 455
200 462
201 202
201 271
201 282
201 460
201 496
202 229
202 246
202 251
202 262
202 332
202 342
202 399
202 463
202 469
202 495
203 207
203 407
204 295
204 315
204 428
204 484
205 239
205 395
205 414
206 218
206 233
206 331
207 321
207 415
207 421
208 327
208 330
208 356
208 377
208 394
208 406
208 468
208 472
209 231
209 237
209 394
209 435
209 466
210 216
210 242
210 299
210 309
210 387
210 463
211 292
211 347
211 435
212 230
212 233
212 278
212 280
212 330
212 338
212 389
212 467
212 471
212 480
213 218
213 283
213 419
213 437
213 465
213 494
214 226
214 281
214 395
214 413
214 430
215 231
215 313
215 332
216 245
216 332
216 398
216 444
217 227
217 260
217 294
217 298
217 372
217 437
217 468
217 478
218 219
218 281
218 455
218 482
219 248
219 404
219 415
219 431
220 264
220 333
220 405
220 445
220 496
221 261
221 305
221 311
221 385
222 241
222 402
223 289
223 306
223 405
223 472
224 308
224 311
224 323
224 431
225 227
225 251
225 290
225 370
225 453
226 259
226 468
227 239
227 253
227 337
227 377
227 443
227 495
227 497
227 499
228 312
228 446
229 268
229 300
229 313
229 334
229 375
229 381
229 417
230 318
230 340
230 383
230 388
231 244
231 386
231 414
231 426
231 438
232 236
232 321
232 325
232 331
232 471
232 482
233 264
233 302
233 349
233 383
233 410
233 478
233 491
234 304
234 335
234 400
234 478
235 248
235 299
235 325
235 396
235 430
236 239
236 248
236 364
236 388
236 400
236 413
236 467
236 474
236 481
237 356
237 391
237 452
238 305
238 434
239 246
239 294
240 352
240 360
240 408
241 256
241 404
241 435
241 489
243 266
243 281
243 293
243 295
243 323
243 361
243 406
243 493
244 326
244 329
244 338
245 283
245 342
246 390
246 399
246 431
246 434
247 288
247 292
247 309
247 380
247 488
248 421
248 466
249 266
249 287
249 351
249 358
249 368
249 396
249 399
249 447
250 358
251 269
251 293
251 371
251 417
251 426
251 455
251 465
251 467
252 283
252 325
252 355
252 366
252 407
252 428
252 466
253 292
253 314
253 371
253 450
254 285
254 402
255 327
255 365
255 483
256 302
256 331
256 466
257 290
257 362
257 399
258 280
258 305
258 369
259 410
259 456
259 481
260 346
260 348
260 378
260 382
260 385
260 386
260 393
260 456
260 487
260 490
261 398
261 446
262 364
262 454
262 483
263 307
263 326
263 345
263 373
264 317
265 320
266 274
266 353
266 441
267 274
267 370
267 489
268 279
268 352
268 379
269 270
269 389
270 306
270 446
271 316
271 338
271 366
271 415
271 421
271 424
271 454
272 293
272 321
273 287
273 311
273 355
273 410
273 412
273 434
274 324
274 331
274 416
274 428
275 321
275 418
275 433
276 285
276 302
276 337
276 431
276 483
277 384
277 449
278 344
278 371
278 412
278 415
278 424
278 455
279 293
279 302
280 357
280 422
280 456
280 486
281 296
281 315
281 363
281 400
282 325
282 327
282 401
283 407
283 493
284 394
284 496
285 297
286 422
286 433
286 454
286 479
287 446
287 456
288 444
289 419
289 478
289 487
290 307
290 377
290 440
290 450
290 456
291 319
291 328
291 396
291 423
291 468
292 308
292 375
292 401
292 435
292 457
293 459
294 401
294 417
294 440
294 460
295 341
295 359
295 390
295 428
295 455
295 463
296 302
296 351
296 378
296 447
296 452
296 482
296 497
297 322
297 354
297 391
297 422
297 435
297 498
298 317
298 388
298 425
299 316
299 355
299 394
299 485
300 487
301 352
301 418
302 378
302 465
302 466
302 484
303 321
303 395
303 459
303 479
303 483
304 370
304 399
304 434
304 477
305 337
305 380
305 387
305 400
306 319
306 338
306 434
307 425
307 438
308 350
308 352
308 466
308 470
309 370
310 384
310 426
310 478
311 333
311 369
311 432
312 439
313 407
313 459
313 486
314 367
314 371
314 380
314 436
314 444
315 391
315 419
315 448
315 453
316 319
316 346
316 356
316 466
317 359
317 363
317 381
317 462
318 325
318 330
318 426
318 484
318 491
319 374
320 351
320 393
320 400
320 414
320 492
321 363
322 406
322 413
322 422
322 427
322 432
323 345
324 429
324 462
324 495
325 368
325 374
325 462
325 491
326 378
327 346
327 406
328 415
329 377
329 458
329 484
330 452
330 473
330 480
331 338
331 374
332 397
332 455
332 475
333 354
333 412
333 486
334 369
334 410
334 421
334 430
334 450
334 459
335 346
336 395
336 421
336 443
336 466
337 343
337 472
338 495
339 365
339 398
339 440
340 390
340 414
340 459
340 489
341 348
341 479
342 370
342 416
342 466
342 479
343 366
343 372
343 443
343 482
343 497
344 346
344 366
344 390
344 401
344 444
346 422
347 370
347 380
347 382
347 404
348 383
348 421
349 352
349 353
349 376
349 443
349 496
350 460
350 483
351 437
351 444
351 458
351 467
351 480
352 416
352 453
353 444
354 361
354 385
354 480
355 450
356 434
356 435
356 477
357 371
357 382
357 459
357 478
357 491
358 367
359 379
359 413
359 453
360 486
362 499
363 401
363 431
363 445
363 451
363 488
363 494
364 413
364 419
364 490
367 455
367 462
369 495
370 403
370 465
371 390
371 499
372 375
373 497
374 448
375 413
375 428
375 434
375 460
375 466
375 485
376 499
381 444
382 424
382 475
382 484
384 459
384 492
385 442
385 460
386 467
387 390
387 394
387 444
387 464
388 403
388 413
388 422
388 432
388 455
389 402
390 416
391 412
393 493
394 423
395 445
396 402
396 431
396 497
397 440
398 484
399 414
399 437
401 423
401 446
402 464
402 466
403 419
403 420
403 457
405 460
407 411
407 487
408 429
408 488
409 456
410 417
410 421
411 433
412 424
412 458
414 440
414 480
414 481
415 492
416 488
421 423
421 477
422 474
423 479
426 430
426 448
426 467
427 468
428 464
430 449
431 443
431 480
434 460
434 467
434 468
434 472
434 477
435 471
435 484
435 491
436 447
437 451
437 479
438 478
440 444
440 453
443 450
443 488
444 449
446 463
447 490
449 496
450 477
454 486
456 481
459 465
461 480
462 492
463 479
465 474
469 472
470 473
471 479
472 496
473 488
474 477
475 494
475 497
477 483
486 499
