0 30
0 48
0 96
0 114
0 145
0 161
0 201
0 309
0 333
0 386
0 390
0 420
0 435
0 444
0 457
0 480
0 485
0 505
0 521
0 558
0 576
0 599
0 615
0 622
0 654
0 695
0 701
0 715
0 725
0 743
1 6
1 8
1 46
1 50
1 88
1 135
1 142
1 163
1 175
1 224
1 275
1 290
1 301
1 348
1 369
1 445
1 458
1 504
1 517
1 523
1 540
1 548
1 558
1 580
1 598
1 620
1 645
1 651
1 747
2 8
2 10
2 16
2 51
2 111
2 130
2 156
2 192
2 212
2 226
2 228
2 232
2 234
2 253
2 275
2 310
2 312
2 322
2 329
2 332
2 358
2 372
2 394
2 429
2 462
2 468
2 482
2 503
2 510
2 518
2 531
2 543
2 600
2 604
2 608
2 630
2 645
2 658
2 710
2 729
2 733
3 52
3 65
3 69
3 89
3 170
3 207
3 223
3 229
3 258
3 259
3 266
3 297
3 307
3 327
3 330
3 336
3 374
3 378
3 412
3 442
3 443
3 481
3 487
3 493
3 513
3 539
3 542
3 562
3 576
3 579
3 604
3 655
3 656
3 657
3 669
3 676
3 720
3 727
3 744
3 749
4 9
4 11
4 13
4 29
4 110
4 119
4 143
4 145
4 150
4 161
4 164
4 190
4 192
4 234
4 237
4 247
4 250
4 306
4 341
4 348
4 357
4 374
4 380
4 386
4 387
4 390
4 392
4 423
4 463
4 503
4 523
4 557
4 578
4 588
4 593
4 636
4 638
4 644
4 654
4 677
4 693
4 740
4 745
4 747
5 16
5 20
5 54
5 55
5 64
5 77
5 111
5 117
5 146
5 147
5 168
5 187
5 256
5 273
5 332
5 333
5 392
5 403
5 426
5 490
5 518
5 522
5 619
5 658
5 662
5 714
5 748
6 31
6 47
6 81
6 101
6 115
6 147
6 154
6 171
6 181
6 193
6 236
6 253
6 280
6 300
6 304
6 320
6 343
6 344
6 360
6 416
6 421
6 442
6 444
6 464
6 465
6 504
6 531
6 646
6 667
6 683
6 700
7 14
7 36
7 44
7 52
7 62
7 67
7 105
7 118
7 156
7 208
7 211
7 234
7 243
7 280
7 303
7 312
7 313
7 328
7 334
7 366
7 386
7 425
7 462
7 510
7 569
7 598
7 606
7 610
7 697
8 13
8 26
8 39
8 89
8 100
8 110
8 124
8 179
8 194
8 214
8 220
8 246
8 252
8 261
8 281
8 317
8 327
8 386
8 404
8 438
8 440
8 457
8 464
8 477
8 507
8 526
8 575
8 595
8 610
8 618
8 653
8 688
8 729
8 733
8 740
8 748
9 21
9 41
9 59
9 114
9 119
9 147
9 153
9 162
9 174
9 200
9 249
9 296
9 302
9 342
9 360
9 381
9 414
9 416
9 424
9 454
9 464
9 484
9 491
9 495
9 508
9 516
9 524
9 539
9 542
9 573
9 592
9 593
9 602
9 615
9 649
9 674
9 697
9 711
9 716
10 13
10 48
10 49
10 55
10 58
10 77
10 91
10 93
10 111
10 156
10 185
10 201
10 204
10 218
10 219
10 243
10 266
10 313
10 314
10 324
10 334
10 348
10 384
10 402
10 412
10 416
10 445
10 494
10 541
10 554
10 578
10 637
10 669
10 673
10 684
10 732
11 34
11 56
11 84
11 131
11 148
11 162
11 169
11 188
11 224
11 252
11 297
11 301
11 307
11 310
11 311
11 322
11 348
11 370
11 454
11 481
11 521
11 528
11 533
11 536
11 566
11 594
11 626
11 647
11 660
11 682
11 692
11 717
12 33
12 56
12 59
12 68
12 117
12 120
12 131
12 142
12 157
12 182
12 198
12 207
12 229
12 266
12 305
12 325
12 337
12 379
12 500
12 518
12 562
12 588
12 631
12 668
12 700
12 713
13 33
13 40
13 46
13 71
13 72
13 81
13 90
13 103
13 107
13 140
13 197
13 213
13 226
13 260
13 316
13 324
13 325
13 326
13 343
13 350
13 352
13 357
13 370
13 371
13 372
13 373
13 391
13 397
13 420
13 429
13 459
13 481
13 500
13 508
13 524
13 531
13 548
13 557
13 564
13 571
13 572
13 576
13 584
13 605
13 653
13 669
13 672
13 685
13 743
14 29
14 37
14 42
14 48
14 69
14 77
14 94
14 188
14 208
14 224
14 225
14 323
14 334
14 391
14 398
14 444
14 451
14 492
14 517
14 521
14 613
14 618
14 651
14 660
14 676
14 679
14 716
14 728
15 16
15 32
15 51
15 106
15 107
15 128
15 156
15 160
15 172
15 200
15 248
15 256
15 270
15 296
15 311
15 318
15 320
15 358
15 392
15 426
15 518
15 519
15 528
15 544
15 563
15 576
15 586
15 645
15 701
15 748
16 17
16 23
16 25
16 107
16 126
16 163
16 164
16 172
16 192
16 216
16 217
16 233
16 305
16 358
16 364
16 367
16 380
16 393
16 421
16 437
16 468
16 496
16 505
16 518
16 529
16 544
16 558
16 612
16 644
16 655
16 659
16 660
16 671
16 729
17 34
17 48
17 62
17 82
17 102
17 120
17 136
17 139
17 145
17 146
17 167
17 182
17 197
17 239
17 248
17 254
17 259
17 264
17 347
17 357
17 371
17 385
17 387
17 411
17 413
17 417
17 422
17 437
17 447
17 465
17 469
17 471
17 494
17 499
17 563
17 587
17 607
17 622
17 623
17 629
17 638
17 652
17 657
17 673
17 682
17 711
17 743
18 37
18 44
18 64
18 109
18 136
18 173
18 191
18 257
18 313
18 322
18 353
18 369
18 422
18 443
18 469
18 503
18 516
18 518
18 538
18 589
18 590
18 648
18 671
18 690
18 694
18 709
19 35
19 39
19 95
19 104
19 110
19 112
19 128
19 160
19 202
19 230
19 250
19 262
19 286
19 310
19 311
19 323
19 327
19 394
19 404
19 426
19 453
19 454
19 463
19 466
19 472
19 480
19 515
19 530
19 535
19 573
19 589
19 629
19 649
19 655
19 656
19 667
19 706
19 708
19 722
19 734
19 747
20 28
20 47
20 93
20 141
20 166
20 172
20 189
20 199
20 209
20 224
20 226
20 267
20 291
20 305
20 338
20 345
20 347
20 351
20 352
20 357
20 377
20 413
20 485
20 516
20 523
20 530
20 620
20 622
20 652
20 656
20 657
20 676
20 677
20 678
20 725
20 728
20 734
20 745
21 53
21 57
21 118
21 119
21 149
21 205
21 206
21 244
21 260
21 265
21 275
21 354
21 367
21 398
21 406
21 424
21 445
21 447
21 492
21 495
21 525
21 552
21 561
21 578
21 579
21 607
21 617
21 631
21 639
21 682
21 684
21 742
22 45
22 51
22 66
22 68
22 95
22 168
22 185
22 235
22 245
22 246
22 249
22 269
22 314
22 341
22 364
22 374
22 381
22 409
22 423
22 451
22 464
22 474
22 515
22 517
22 563
22 598
22 649
22 669
22 676
22 693
22 702
22 742
22 749
23 62
23 84
23 88
23 100
23 102
23 127
23 129
23 153
23 173
23 177
23 181
23 250
23 259
23 325
23 337
23 344
23 349
23 360
23 391
23 428
23 471
23 479
23 491
23 496
23 501
23 586
23 589
23 606
23 683
23 697
23 721
23 749
24 32
24 37
24 39
24 55
24 83
24 88
24 91
24 95
24 105
24 109
24 129
24 134
24 139
24 144
24 169
24 227
24 230
24 264
24 281
24 295
24 303
24 315
24 422
24 423
24 429
24 448
24 449
24 462
24 469
24 502
24 525
24 544
24 551
24 569
24 578
24 588
24 603
24 607
24 639
24 641
24 647
24 654
24 722
24 723
24 737
25 33
25 36
25 44
25 115
25 116
25 157
25 188
25 189
25 216
25 230
25 241
25 280
25 315
25 326
25 350
25 352
25 362
25 369
25 426
25 449
25 451
25 482
25 495
25 538
25 572
25 573
25 593
25 603
25 629
25 637
25 705
25 707
25 738
25 748
26 77
26 92
26 133
26 144
26 153
26 228
26 239
26 278
26 280
26 296
26 322
26 373
26 376
26 378
26 391
26 405
26 429
26 447
26 451
26 479
26 509
26 533
26 593
26 613
26 649
26 682
26 712
26 718
26 732
27 75
27 77
27 88
27 92
27 103
27 104
27 116
27 125
27 172
27 190
27 206
27 211
27 236
27 256
27 257
27 289
27 309
27 334
27 345
27 354
27 363
27 390
27 487
27 515
27 516
27 544
27 545
27 580
27 682
27 691
27 712
27 714
28 124
28 199
28 207
28 229
28 230
28 247
28 252
28 278
28 330
28 358
28 366
28 377
28 400
28 412
28 437
28 446
28 473
28 482
28 558
28 561
28 567
28 602
28 645
28 658
28 727
28 730
28 731
29 60
29 79
29 91
29 99
29 100
29 101
29 109
29 160
29 163
29 166
29 181
29 198
29 201
29 217
29 222
29 249
29 286
29 287
29 330
29 370
29 382
29 392
29 399
29 463
29 470
29 482
29 535
29 576
29 619
29 648
29 651
29 666
29 671
29 673
29 720
29 734
29 745
30 38
30 50
30 79
30 109
30 139
30 142
30 163
30 173
30 192
30 207
30 221
30 252
30 284
30 296
30 307
30 337
30 352
30 365
30 413
30 453
30 507
30 512
30 540
30 559
30 590
30 597
30 633
30 666
30 724
30 731
30 735
31 40
31 48
31 56
31 106
31 110
31 111
31 120
31 124
31 201
31 202
31 215
31 218
31 248
31 271
31 290
31 297
31 316
31 321
31 325
31 378
31 397
31 460
31 465
31 507
31 516
31 557
31 602
31 618
31 629
31 630
31 637
31 642
31 659
31 671
31 691
31 699
31 702
32 49
32 50
32 102
32 128
32 136
32 137
32 165
32 170
32 175
32 176
32 200
32 228
32 240
32 284
32 287
32 291
32 293
32 301
32 364
32 377
32 379
32 409
32 437
32 451
32 464
32 530
32 532
32 543
32 580
32 627
32 629
32 712
33 49
33 63
33 68
33 80
33 95
33 115
33 155
33 219
33 236
33 248
33 256
33 329
33 351
33 364
33 392
33 398
33 456
33 459
33 496
33 525
33 535
33 551
33 567
33 594
33 612
33 614
33 635
33 694
33 704
33 711
33 737
34 44
34 74
34 104
34 114
34 147
34 159
34 192
34 235
34 276
34 279
34 297
34 298
34 319
34 330
34 342
34 363
34 370
34 399
34 415
34 417
34 440
34 444
34 452
34 458
34 490
34 496
34 551
34 560
34 601
34 615
34 646
34 683
34 703
34 738
35 37
35 62
35 63
35 70
35 77
35 117
35 128
35 147
35 178
35 179
35 198
35 221
35 240
35 251
35 281
35 310
35 342
35 345
35 353
35 360
35 410
35 411
35 414
35 421
35 423
35 512
35 578
35 588
35 597
35 614
35 628
35 637
35 640
35 707
36 52
36 59
36 73
36 107
36 147
36 242
36 250
36 283
36 298
36 317
36 324
36 338
36 339
36 434
36 481
36 501
36 543
36 578
36 591
36 629
36 643
37 75
37 110
37 125
37 140
37 142
37 173
37 177
37 178
37 183
37 248
37 249
37 280
37 281
37 320
37 344
37 386
37 425
37 504
37 517
37 521
37 543
37 544
37 547
37 552
37 611
37 656
37 683
37 684
37 724
38 51
38 52
38 81
38 101
38 104
38 133
38 140
38 142
38 158
38 159
38 165
38 169
38 197
38 204
38 213
38 223
38 252
38 265
38 276
38 293
38 384
38 411
38 426
38 453
38 465
38 480
38 489
38 490
38 519
38 526
38 542
38 555
38 573
38 582
38 618
38 626
38 639
38 666
38 748
39 41
39 50
39 58
39 59
39 86
39 142
39 161
39 183
39 190
39 216
39 241
39 304
39 319
39 338
39 358
39 415
39 420
39 425
39 426
39 452
39 458
39 470
39 517
39 524
39 585
39 592
39 596
39 601
39 673
39 676
39 690
39 704
39 726
39 738
39 740
39 747
39 748
40 98
40 102
40 140
40 148
40 152
40 161
40 184
40 237
40 250
40 267
40 273
40 319
40 374
40 428
40 443
40 451
40 461
40 500
40 502
40 507
40 521
40 522
40 530
40 584
40 585
40 624
40 671
40 674
40 680
40 687
40 694
40 696
40 736
41 46
41 62
41 96
41 126
41 152
41 165
41 169
41 180
41 197
41 210
41 221
41 249
41 286
41 291
41 299
41 317
41 318
41 325
41 337
41 338
41 363
41 377
41 396
41 428
41 429
41 432
41 464
41 472
41 499
41 546
41 558
41 607
41 663
41 738
42 99
42 103
42 125
42 160
42 186
42 244
42 281
42 306
42 315
42 328
42 380
42 419
42 430
42 446
42 449
42 487
42 488
42 489
42 517
42 524
42 567
42 575
42 584
42 588
42 652
42 654
42 662
42 704
42 733
42 746
43 107
43 172
43 199
43 214
43 247
43 260
43 263
43 268
43 296
43 299
43 305
43 332
43 339
43 360
43 367
43 369
43 399
43 421
43 425
43 475
43 482
43 516
43 544
43 573
43 580
43 607
43 635
43 638
43 651
43 654
43 660
43 661
43 677
43 721
43 748
44 60
44 73
44 85
44 106
44 122
44 152
44 169
44 223
44 243
44 295
44 328
44 354
44 378
44 384
44 386
44 388
44 392
44 443
44 451
44 468
44 477
44 486
44 497
44 548
44 627
44 647
44 686
44 690
44 734
44 749
45 90
45 164
45 171
45 185
45 198
45 233
45 241
45 280
45 301
45 336
45 440
45 468
45 481
45 510
45 512
45 514
45 546
45 593
45 614
45 620
45 640
45 662
45 682
45 716
45 719
45 733
45 745
46 47
46 97
46 113
46 125
46 135
46 196
46 204
46 216
46 218
46 223
46 254
46 293
46 305
46 340
46 371
46 373
46 384
46 417
46 421
46 423
46 430
46 434
46 439
46 458
46 463
46 498
46 508
46 527
46 537
46 568
46 572
46 574
46 578
46 587
46 628
46 665
46 683
46 715
47 54
47 65
47 70
47 95
47 103
47 122
47 130
47 133
47 135
47 212
47 229
47 246
47 254
47 268
47 283
47 284
47 301
47 352
47 353
47 395
47 421
47 454
47 470
47 477
47 529
47 533
47 536
47 540
47 543
47 563
47 577
47 597
47 608
47 621
47 631
47 646
47 660
47 683
47 709
48 59
48 98
48 144
48 145
48 155
48 159
48 176
48 207
48 215
48 237
48 247
48 258
48 266
48 272
48 276
48 294
48 312
48 396
48 409
48 410
48 428
48 442
48 457
48 462
48 472
48 499
48 515
48 526
48 530
48 538
48 582
48 586
48 596
48 599
48 642
48 646
48 650
48 684
48 691
48 692
48 699
48 707
48 724
49 54
49 84
49 123
49 148
49 161
49 189
49 205
49 239
49 262
49 283
49 291
49 294
49 337
49 343
49 362
49 405
49 420
49 427
49 451
49 456
49 470
49 476
49 481
49 497
49 526
49 561
49 563
49 565
49 566
49 580
49 588
49 593
49 594
49 608
49 640
49 688
49 708
49 717
49 728
49 737
50 74
50 80
50 90
50 97
50 137
50 152
50 159
50 203
50 245
50 267
50 313
50 345
50 366
50 387
50 416
50 419
50 444
50 448
50 459
50 537
50 620
50 622
50 635
50 646
50 651
50 665
50 696
50 711
50 717
50 748
51 73
51 89
51 90
51 112
51 153
51 167
51 255
51 275
51 293
51 344
51 399
51 416
51 466
51 488
51 491
51 499
51 503
51 527
51 538
51 562
51 578
51 584
51 601
51 620
51 674
51 716
51 719
52 57
52 86
52 95
52 120
52 133
52 177
52 201
52 213
52 235
52 250
52 287
52 311
52 322
52 334
52 365
52 369
52 382
52 418
52 472
52 530
52 590
52 597
52 606
52 619
52 624
52 635
52 667
52 688
52 725
52 729
52 740
53 62
53 88
53 91
53 100
53 101
53 125
53 143
53 156
53 163
53 194
53 233
53 262
53 274
53 283
53 308
53 328
53 347
53 352
53 361
53 387
53 420
53 488
53 512
53 520
53 547
53 555
53 565
53 573
53 585
53 596
53 598
53 636
53 638
53 639
53 648
53 657
53 658
53 662
53 692
53 695
53 697
53 705
53 743
54 63
54 112
54 125
54 136
54 166
54 199
54 205
54 210
54 224
54 231
54 241
54 253
54 299
54 318
54 320
54 364
54 384
54 387
54 403
54 413
54 420
54 428
54 471
54 490
54 538
54 542
54 575
54 578
54 588
54 602
54 624
54 686
54 697
54 702
54 734
55 58
55 66
55 98
55 119
55 127
55 133
55 180
55 199
55 205
55 216
55 219
55 225
55 232
55 233
55 243
55 254
55 267
55 270
55 275
55 408
55 466
55 547
55 572
55 583
55 605
55 623
55 633
55 650
55 665
55 719
55 732
56 73
56 97
56 99
56 116
56 145
56 171
56 173
56 187
56 203
56 254
56 260
56 271
56 282
56 295
56 299
56 329
56 360
56 401
56 408
56 412
56 418
56 426
56 432
56 472
56 491
56 520
56 523
56 527
56 537
56 556
56 558
56 559
56 595
56 633
56 685
56 694
56 723
56 730
56 733
57 67
57 77
57 93
57 121
57 152
57 261
57 284
57 287
57 316
57 317
57 324
57 357
57 358
57 370
57 391
57 395
57 404
57 410
57 419
57 427
57 430
57 471
57 492
57 523
57 525
57 528
57 542
57 543
57 582
57 602
57 603
57 619
57 640
57 690
57 697
57 702
57 721
57 734
57 738
57 741
57 745
58 96
58 103
58 121
58 152
58 155
58 178
58 194
58 214
58 221
58 270
58 290
58 296
58 319
58 336
58 392
58 395
58 416
58 437
58 447
58 478
58 495
58 504
58 546
58 566
58 570
58 587
58 589
58 596
58 621
58 647
58 667
58 668
58 678
58 681
58 697
59 65
59 75
59 80
59 83
59 131
59 138
59 163
59 202
59 208
59 238
59 271
59 302
59 350
59 363
59 396
59 402
59 407
59 460
59 461
59 472
59 491
59 515
59 615
59 682
59 689
59 725
59 731
59 748
60 63
60 82
60 97
60 101
60 112
60 145
60 164
60 188
60 217
60 293
60 324
60 333
60 394
60 426
60 455
60 472
60 478
60 500
60 524
60 527
60 535
60 572
60 574
60 580
60 635
60 686
60 698
60 719
60 720
60 743
61 95
61 114
61 132
61 144
61 159
61 185
61 197
61 200
61 203
61 274
61 290
61 291
61 320
61 335
61 354
61 427
61 439
61 447
61 454
61 481
61 502
61 523
61 542
61 574
61 615
61 644
61 646
61 687
61 703
61 704
61 718
61 728
62 88
62 90
62 113
62 121
62 124
62 142
62 148
62 156
62 168
62 200
62 209
62 348
62 356
62 359
62 390
62 394
62 432
62 443
62 446
62 470
62 473
62 482
62 533
62 535
62 557
62 567
62 608
62 614
62 636
62 654
62 658
62 665
62 702
62 741
63 66
63 74
63 89
63 103
63 112
63 128
63 177
63 190
63 263
63 282
63 284
63 288
63 306
63 322
63 341
63 342
63 345
63 405
63 408
63 412
63 439
63 469
63 471
63 512
63 517
63 551
63 553
63 567
63 571
63 595
63 601
63 602
63 643
63 647
63 654
63 663
63 683
63 722
63 729
63 737
64 83
64 89
64 124
64 171
64 186
64 242
64 297
64 305
64 314
64 365
64 371
64 379
64 395
64 406
64 437
64 440
64 463
64 496
64 534
64 540
64 581
64 586
64 591
64 594
64 595
64 600
64 634
64 640
64 643
64 651
64 705
64 723
64 729
64 738
65 82
65 88
65 139
65 147
65 170
65 178
65 184
65 198
65 213
65 298
65 305
65 325
65 353
65 377
65 382
65 406
65 447
65 461
65 462
65 480
65 486
65 495
65 533
65 559
65 614
65 665
65 692
65 701
65 713
65 714
65 724
65 748
66 69
66 104
66 128
66 131
66 137
66 150
66 156
66 167
66 179
66 200
66 212
66 234
66 262
66 287
66 311
66 346
66 401
66 411
66 423
66 446
66 462
66 469
66 485
66 504
66 513
66 530
66 539
66 557
66 570
66 593
66 653
66 671
66 678
66 711
67 84
67 115
67 214
67 246
67 286
67 307
67 342
67 384
67 424
67 442
67 445
67 453
67 460
67 494
67 504
67 505
67 513
67 532
67 533
67 559
67 569
67 598
67 626
67 628
67 657
67 671
67 726
67 748
68 79
68 132
68 136
68 172
68 176
68 253
68 324
68 328
68 335
68 424
68 430
68 479
68 498
68 502
68 509
68 516
68 524
68 530
68 550
68 587
68 620
68 622
68 636
68 642
68 653
68 667
68 676
68 686
68 714
68 746
69 78
69 97
69 132
69 138
69 225
69 226
69 284
69 286
69 300
69 317
69 329
69 377
69 382
69 388
69 401
69 407
69 411
69 414
69 450
69 456
69 490
69 492
69 524
69 536
69 546
69 554
69 573
69 575
69 582
69 586
69 603
69 623
69 692
69 722
69 736
70 72
70 75
70 144
70 195
70 208
70 237
70 251
70 266
70 309
70 310
70 332
70 333
70 335
70 398
70 412
70 433
70 443
70 447
70 449
70 511
70 536
70 538
70 546
70 609
70 638
70 640
70 657
70 712
70 731
71 90
71 103
71 164
71 196
71 198
71 213
71 216
71 277
71 283
71 295
71 308
71 312
71 324
71 327
71 375
71 379
71 381
71 390
71 476
71 492
71 499
71 561
71 598
71 644
71 657
71 665
71 720
72 81
72 86
72 93
72 108
72 118
72 189
72 194
72 196
72 230
72 247
72 253
72 266
72 300
72 315
72 316
72 336
72 362
72 364
72 368
72 371
72 395
72 411
72 417
72 422
72 433
72 454
72 459
72 475
72 527
72 558
72 605
72 614
72 617
72 646
72 652
72 713
72 714
72 736
72 744
73 97
73 155
73 168
73 211
73 241
73 276
73 306
73 318
73 384
73 406
73 407
73 408
73 444
73 447
73 463
73 536
73 547
73 569
73 572
73 574
73 634
73 664
73 669
73 672
73 702
73 712
73 748
74 80
74 88
74 128
74 135
74 170
74 173
74 220
74 221
74 237
74 297
74 300
74 301
74 305
74 328
74 331
74 341
74 361
74 380
74 410
74 482
74 517
74 554
74 651
74 692
74 724
74 745
75 112
75 124
75 139
75 140
75 177
75 194
75 198
75 224
75 241
75 244
75 255
75 277
75 311
75 315
75 317
75 325
75 354
75 378
75 391
75 403
75 417
75 458
75 476
75 495
75 497
75 500
75 502
75 531
75 537
75 579
75 589
75 615
75 631
75 694
75 722
75 728
75 740
75 744
76 99
76 111
76 136
76 159
76 178
76 241
76 242
76 252
76 299
76 305
76 341
76 367
76 407
76 416
76 421
76 442
76 478
76 528
76 530
76 536
76 540
76 557
76 575
76 600
76 657
76 660
76 664
76 670
76 697
76 722
76 728
76 738
76 744
76 745
77 93
77 159
77 175
77 192
77 196
77 256
77 261
77 279
77 286
77 294
77 355
77 375
77 392
77 396
77 437
77 441
77 447
77 493
77 513
77 524
77 536
77 541
77 542
77 549
77 564
77 565
77 585
77 621
77 688
77 702
77 703
77 708
77 721
77 749
78 133
78 137
78 141
78 149
78 225
78 256
78 319
78 356
78 365
78 366
78 369
78 374
78 397
78 451
78 471
78 496
78 498
78 558
78 586
78 590
78 631
78 650
78 678
78 722
78 745
79 82
79 101
79 113
79 152
79 156
79 157
79 168
79 186
79 211
79 231
79 240
79 302
79 316
79 344
79 345
79 346
79 368
79 412
79 428
79 435
79 438
79 449
79 468
79 487
79 522
79 528
79 544
79 546
79 558
79 560
79 573
79 597
79 605
79 644
79 648
80 88
80 101
80 106
80 114
80 128
80 130
80 147
80 182
80 197
80 248
80 311
80 345
80 349
80 405
80 408
80 416
80 446
80 448
80 465
80 480
80 491
80 496
80 515
80 521
80 543
80 568
80 571
80 598
80 631
80 641
80 647
80 667
80 711
80 733
81 101
81 110
81 121
81 129
81 130
81 139
81 151
81 158
81 164
81 193
81 215
81 226
81 250
81 266
81 293
81 296
81 342
81 350
81 356
81 389
81 399
81 416
81 426
81 439
81 461
81 468
81 474
81 483
81 504
81 524
81 551
81 590
81 623
81 640
81 740
82 106
82 111
82 125
82 129
82 130
82 132
82 133
82 138
82 171
82 180
82 186
82 187
82 194
82 206
82 228
82 260
82 273
82 286
82 288
82 302
82 310
82 337
82 350
82 352
82 361
82 370
82 381
82 385
82 395
82 406
82 428
82 452
82 455
82 462
82 508
82 536
82 538
82 554
82 567
82 575
82 608
82 637
82 647
82 669
82 683
82 710
82 719
83 88
83 124
83 148
83 196
83 199
83 214
83 225
83 226
83 246
83 264
83 304
83 360
83 391
83 429
83 468
83 522
83 576
83 591
83 592
83 640
83 662
83 666
83 697
83 699
83 713
83 716
83 719
83 727
83 731
84 110
84 119
84 127
84 130
84 136
84 152
84 181
84 194
84 267
84 282
84 290
84 299
84 356
84 375
84 395
84 400
84 415
84 430
84 442
84 450
84 457
84 462
84 468
84 479
84 489
84 498
84 527
84 535
84 587
84 644
84 669
84 679
85 86
85 104
85 124
85 126
85 136
85 141
85 143
85 183
85 185
85 187
85 197
85 199
85 217
85 220
85 244
85 276
85 288
85 303
85 304
85 305
85 319
85 349
85 374
85 381
85 438
85 455
85 477
85 510
85 546
85 596
85 601
85 649
85 663
85 693
85 699
85 705
85 736
85 741
86 130
86 158
86 168
86 176
86 187
86 218
86 299
86 336
86 349
86 350
86 354
86 361
86 379
86 440
86 454
86 458
86 548
86 564
86 571
86 599
86 600
86 634
86 644
86 650
86 670
86 699
86 745
87 140
87 154
87 178
87 200
87 211
87 224
87 238
87 257
87 264
87 280
87 281
87 283
87 296
87 311
87 384
87 408
87 451
87 475
87 493
87 496
87 505
87 515
87 578
87 603
87 604
87 624
87 634
87 645
87 656
87 681
87 699
87 720
87 725
87 738
88 91
88 92
88 93
88 100
88 108
88 113
88 117
88 192
88 197
88 244
88 326
88 336
88 355
88 365
88 369
88 388
88 389
88 418
88 454
88 486
88 494
88 529
88 564
88 597
88 617
88 625
88 655
88 711
88 728
89 91
89 107
89 115
89 169
89 173
89 183
89 184
89 195
89 235
89 270
89 308
89 317
89 341
89 342
89 351
89 362
89 372
89 378
89 393
89 418
89 451
89 474
89 482
89 493
89 516
89 552
89 573
89 608
89 649
89 651
89 678
89 686
89 707
89 717
90 141
90 143
90 157
90 187
90 212
90 237
90 244
90 257
90 323
90 325
90 328
90 331
90 350
90 364
90 365
90 371
90 379
90 416
90 425
90 436
90 446
90 457
90 492
90 503
90 552
90 572
90 599
90 623
90 626
90 638
90 646
90 658
90 679
90 683
90 709
90 718
90 721
90 734
91 153
91 154
91 157
91 203
91 230
91 240
91 250
91 278
91 306
91 313
91 329
91 332
91 347
91 390
91 399
91 476
91 478
91 495
91 529
91 538
91 544
91 587
91 623
91 699
91 700
91 709
91 714
91 735
92 132
92 146
92 150
92 166
92 178
92 199
92 233
92 290
92 293
92 300
92 325
92 402
92 414
92 434
92 436
92 437
92 441
92 455
92 503
92 523
92 533
92 540
92 571
92 577
92 624
92 649
92 700
92 705
92 714
92 730
93 97
93 107
93 129
93 137
93 152
93 163
93 164
93 169
93 209
93 235
93 289
93 333
93 334
93 356
93 373
93 375
93 388
93 389
93 392
93 404
93 431
93 455
93 473
93 522
93 547
93 558
93 585
93 589
93 611
93 639
93 666
93 699
93 708
93 738
94 100
94 119
94 159
94 178
94 179
94 191
94 194
94 214
94 260
94 348
94 362
94 384
94 386
94 398
94 432
94 451
94 492
94 521
94 612
94 624
94 636
94 657
94 663
94 747
95 203
95 210
95 259
95 261
95 262
95 300
95 308
95 326
95 360
95 377
95 382
95 412
95 416
95 418
95 431
95 444
95 474
95 482
95 503
95 506
95 518
95 540
95 581
95 604
95 618
95 648
95 670
95 693
95 700
95 701
95 717
95 731
96 122
96 128
96 133
96 173
96 217
96 227
96 248
96 271
96 347
96 351
96 454
96 474
96 496
96 529
96 568
96 592
96 599
96 619
96 622
96 623
96 652
96 660
96 719
96 738
97 112
97 172
97 222
97 258
97 267
97 310
97 330
97 338
97 394
97 402
97 472
97 473
97 479
97 491
97 497
97 568
97 604
97 613
97 620
97 630
97 659
97 690
97 712
97 715
97 721
97 726
97 739
98 104
98 168
98 203
98 226
98 253
98 283
98 293
98 296
98 331
98 339
98 361
98 388
98 419
98 445
98 458
98 460
98 465
98 505
98 513
98 550
98 574
98 591
98 631
98 640
98 642
98 681
98 696
98 713
98 724
98 739
98 745
99 109
99 116
99 140
99 141
99 147
99 153
99 166
99 231
99 232
99 239
99 281
99 295
99 303
99 304
99 323
99 336
99 345
99 366
99 372
99 417
99 420
99 432
99 436
99 465
99 515
99 523
99 533
99 537
99 542
99 552
99 581
99 584
99 612
99 617
99 623
99 634
99 669
99 673
99 743
100 110
100 148
100 168
100 203
100 220
100 232
100 288
100 330
100 336
100 349
100 368
100 376
100 411
100 422
100 445
100 455
100 492
100 497
100 499
100 500
100 550
100 558
100 566
100 573
100 633
100 699
101 130
101 164
101 168
101 183
101 184
101 212
101 213
101 220
101 242
101 262
101 275
101 282
101 290
101 322
101 337
101 342
101 364
101 369
101 417
101 431
101 440
101 503
101 535
101 546
101 557
101 583
101 589
101 591
101 592
101 594
101 616
101 626
101 633
101 652
101 665
101 677
101 683
102 112
102 151
102 166
102 173
102 181
102 196
102 239
102 279
102 292
102 313
102 322
102 362
102 381
102 387
102 410
102 412
102 417
102 456
102 460
102 468
102 470
102 477
102 487
102 488
102 508
102 528
102 540
102 576
102 590
102 591
102 599
102 614
102 623
102 653
102 656
102 697
102 711
102 722
102 739
103 108
103 120
103 121
103 127
103 145
103 186
103 199
103 206
103 208
103 235
103 351
103 362
103 382
103 415
103 458
103 469
103 482
103 507
103 508
103 546
103 562
103 607
103 642
103 651
103 679
103 683
103 699
103 728
103 732
104 124
104 130
104 149
104 163
104 183
104 196
104 221
104 225
104 235
104 254
104 271
104 273
104 313
104 325
104 333
104 335
104 387
104 394
104 411
104 416
104 444
104 445
104 451
104 474
104 479
104 504
104 513
104 514
104 529
104 536
104 592
104 628
104 655
104 661
104 662
104 705
104 735
104 748
105 119
105 148
105 211
105 214
105 233
105 260
105 280
105 357
105 403
105 405
105 410
105 411
105 440
105 443
105 459
105 501
105 526
105 548
105 564
105 576
105 579
105 595
105 599
105 600
105 626
105 630
105 642
105 645
105 659
105 664
105 668
105 672
105 692
105 713
105 718
106 112
106 152
106 155
106 193
106 210
106 234
106 250
106 278
106 286
106 290
106 305
106 309
106 310
106 329
106 358
106 389
106 410
106 476
106 499
106 526
106 545
106 553
106 563
106 658
106 666
106 670
106 689
106 699
106 708
106 712
106 732
106 735
106 744
107 136
107 150
107 153
107 172
107 183
107 200
107 201
107 222
107 234
107 250
107 255
107 257
107 263
107 354
107 362
107 373
107 392
107 393
107 397
107 406
107 436
107 441
107 444
107 452
107 486
107 536
107 566
107 582
107 619
107 635
107 650
107 651
107 653
107 676
107 691
107 712
107 718
107 741
107 745
107 748
108 121
108 139
108 142
108 148
108 173
108 201
108 237
108 269
108 297
108 308
108 310
108 341
108 365
108 411
108 424
108 457
108 473
108 479
108 489
108 538
108 544
108 665
108 683
108 711
108 717
108 722
108 725
109 133
109 145
109 171
109 176
109 306
109 312
109 331
109 350
109 360
109 364
109 407
109 408
109 434
109 439
109 456
109 458
109 496
109 507
109 549
109 555
109 576
109 582
109 598
109 601
109 607
109 608
109 638
109 649
109 653
109 661
109 674
109 690
109 705
109 745
109 746
110 114
110 136
110 139
110 150
110 170
110 227
110 249
110 257
110 281
110 285
110 306
110 324
110 330
110 386
110 411
110 422
110 459
110 496
110 555
110 572
110 594
110 620
110 624
110 683
110 690
110 692
110 695
110 704
110 726
111 120
111 132
111 196
111 273
111 274
111 278
111 281
111 332
111 343
111 416
111 430
111 432
111 441
111 452
111 473
111 533
111 536
111 551
111 558
111 575
111 581
111 590
111 601
111 614
111 622
111 628
111 636
111 683
111 701
111 705
111 710
112 142
112 159
112 167
112 194
112 207
112 211
112 217
112 354
112 374
112 381
112 388
112 389
112 404
112 416
112 420
112 433
112 446
112 454
112 459
112 469
112 584
112 585
112 601
112 603
112 619
112 620
112 648
112 652
112 676
112 689
112 701
112 704
112 729
113 119
113 167
113 180
113 192
113 198
113 229
113 319
113 397
113 410
113 419
113 461
113 476
113 496
113 507
113 509
113 522
113 558
113 596
113 623
113 657
113 688
113 701
113 702
113 707
113 709
113 726
113 732
114 123
114 145
114 146
114 155
114 156
114 167
114 208
114 216
114 274
114 279
114 290
114 313
114 324
114 354
114 370
114 381
114 418
114 421
114 426
114 443
114 480
114 511
114 515
114 523
114 538
114 546
114 574
114 612
114 666
114 711
114 730
115 127
115 156
115 159
115 223
115 228
115 235
115 270
115 283
115 341
115 346
115 365
115 382
115 410
115 412
115 448
115 463
115 480
115 481
115 483
115 496
115 502
115 538
115 552
115 579
115 580
115 581
115 589
115 597
115 599
115 621
115 664
115 667
115 709
116 132
116 164
116 185
116 200
116 202
116 207
116 234
116 256
116 266
116 274
116 289
116 317
116 328
116 336
116 371
116 414
116 437
116 446
116 452
116 457
116 576
116 593
116 632
116 637
116 642
116 644
116 689
116 705
116 715
116 745
117 137
117 141
117 145
117 157
117 176
117 184
117 190
117 237
117 269
117 277
117 331
117 332
117 337
117 341
117 366
117 391
117 398
117 423
117 429
117 437
117 529
117 570
117 582
117 631
117 708
117 747
118 124
118 127
118 128
118 135
118 252
118 317
118 339
118 356
118 378
118 387
118 398
118 401
118 428
118 434
118 499
118 507
118 540
118 563
118 583
118 641
118 642
118 652
118 655
118 674
118 727
118 744
119 121
119 268
119 271
119 282
119 315
119 372
119 390
119 421
119 542
119 553
119 598
119 600
119 619
119 694
119 702
120 134
120 215
120 223
120 229
120 253
120 266
120 299
120 300
120 301
120 318
120 324
120 334
120 357
120 359
120 364
120 404
120 439
120 471
120 485
120 496
120 523
120 527
120 557
120 561
120 620
120 631
120 665
120 734
121 123
121 152
121 166
121 179
121 181
121 196
121 236
121 242
121 253
121 331
121 338
121 343
121 356
121 371
121 382
121 411
121 432
121 445
121 447
121 482
121 512
121 525
121 587
121 625
121 648
121 663
121 684
121 698
121 704
121 743
122 154
122 195
122 218
122 235
122 282
122 301
122 339
122 381
122 391
122 400
122 411
122 428
122 453
122 485
122 528
122 585
122 593
122 636
122 645
122 649
122 660
122 690
122 692
122 696
122 710
122 718
122 736
123 149
123 158
123 160
123 176
123 183
123 230
123 298
123 323
123 337
123 354
123 357
123 364
123 425
123 508
123 511
123 522
123 524
123 576
123 607
123 616
123 649
123 667
123 692
123 694
123 710
123 726
124 159
124 168
124 207
124 226
124 242
124 252
124 281
124 302
124 324
124 341
124 411
124 416
124 443
124 465
124 483
124 535
124 543
124 545
124 554
124 581
124 608
124 612
124 633
124 636
124 641
124 665
124 682
124 684
124 721
124 733
124 735
124 739
125 142
125 176
125 177
125 202
125 204
125 215
125 223
125 224
125 254
125 267
125 275
125 293
125 295
125 304
125 309
125 310
125 322
125 330
125 333
125 357
125 369
125 401
125 431
125 455
125 464
125 467
125 489
125 577
125 627
125 672
125 678
125 735
126 137
126 155
126 217
126 222
126 229
126 256
126 308
126 337
126 358
126 380
126 386
126 401
126 411
126 460
126 498
126 516
126 523
126 558
126 586
126 600
126 634
126 663
126 669
126 691
126 701
126 732
126 744
127 130
127 141
127 142
127 163
127 168
127 178
127 191
127 218
127 219
127 235
127 249
127 266
127 269
127 283
127 319
127 322
127 352
127 400
127 414
127 428
127 438
127 449
127 454
127 516
127 536
127 551
127 576
127 620
127 627
127 629
127 630
127 656
127 663
127 676
127 677
127 680
127 712
128 140
128 160
128 226
128 227
128 239
128 258
128 321
128 385
128 389
128 420
128 432
128 458
128 478
128 534
128 554
128 572
128 585
128 586
128 591
128 612
128 654
128 677
128 693
128 697
128 717
128 742
129 163
129 194
129 214
129 233
129 248
129 259
129 274
129 308
129 310
129 342
129 392
129 395
129 433
129 460
129 462
129 470
129 486
129 498
129 513
129 516
129 539
129 547
129 583
129 592
129 615
129 617
129 652
129 668
130 141
130 146
130 158
130 168
130 173
130 179
130 191
130 214
130 223
130 242
130 246
130 253
130 265
130 270
130 271
130 277
130 294
130 313
130 314
130 336
130 341
130 367
130 377
130 429
130 446
130 460
130 491
130 539
130 566
130 578
130 581
130 588
130 641
130 646
130 648
131 155
131 203
131 228
131 240
131 262
131 329
131 395
131 429
131 512
131 548
131 579
131 585
131 592
131 599
131 614
131 653
131 681
131 688
131 696
131 729
131 740
131 743
132 150
132 165
132 248
132 280
132 288
132 296
132 317
132 320
132 327
132 329
132 359
132 411
132 419
132 431
132 443
132 498
132 503
132 520
132 524
132 538
132 561
132 595
132 606
132 639
132 676
132 688
132 717
132 742
133 155
133 170
133 189
133 190
133 197
133 199
133 247
133 282
133 301
133 307
133 311
133 336
133 341
133 348
133 351
133 354
133 371
133 431
133 436
133 470
133 481
133 514
133 530
133 546
133 581
133 590
133 613
133 624
133 627
133 628
133 636
133 642
133 656
133 666
133 684
133 722
133 741
134 149
134 166
134 184
134 231
134 295
134 323
134 336
134 348
134 354
134 385
134 395
134 403
134 422
134 441
134 455
134 457
134 490
134 491
134 548
134 563
134 564
134 581
134 586
134 592
134 646
134 655
134 673
134 674
134 686
135 142
135 143
135 151
135 191
135 208
135 244
135 251
135 277
135 287
135 335
135 339
135 344
135 417
135 442
135 444
135 451
135 452
135 468
135 538
135 545
135 546
135 616
135 638
135 662
135 699
135 703
135 711
135 721
135 733
135 742
135 746
136 144
136 192
136 195
136 219
136 248
136 268
136 287
136 316
136 317
136 369
136 456
136 460
136 461
136 485
136 486
136 487
136 538
136 555
136 577
136 615
136 636
136 639
136 662
136 716
136 738
136 742
137 141
137 171
137 173
137 242
137 287
137 294
137 338
137 378
137 401
137 408
137 441
137 467
137 469
137 475
137 491
137 499
137 507
137 508
137 538
137 550
137 555
137 606
137 619
137 667
137 739
138 156
138 197
138 221
138 228
138 238
138 279
138 290
138 296
138 304
138 337
138 413
138 416
138 488
138 495
138 499
138 537
138 540
138 588
138 609
138 682
138 704
138 712
138 741
139 158
139 163
139 165
139 207
139 288
139 322
139 338
139 373
139 395
139 408
139 415
139 419
139 435
139 454
139 464
139 507
139 511
139 535
139 549
139 562
139 604
139 662
139 720
139 725
140 159
140 240
140 247
140 301
140 315
140 340
140 377
140 404
140 423
140 454
140 589
140 600
140 650
140 671
140 676
140 729
140 738
141 190
141 212
141 226
141 241
141 260
141 322
141 326
141 337
141 353
141 359
141 375
141 395
141 442
141 444
141 497
141 498
141 520
141 521
141 530
141 535
141 536
141 539
141 577
141 624
141 668
141 672
141 727
142 145
142 183
142 239
142 246
142 263
142 268
142 278
142 287
142 308
142 319
142 332
142 350
142 352
142 382
142 389
142 402
142 407
142 411
142 416
142 439
142 490
142 497
142 500
142 513
142 564
142 571
142 591
142 602
142 656
142 667
142 673
142 694
142 698
142 737
143 166
143 175
143 187
143 268
143 292
143 319
143 338
143 350
143 362
143 381
143 405
143 411
143 416
143 429
143 524
143 529
143 539
143 579
143 592
143 651
143 705
143 715
143 721
143 722
143 743
144 161
144 163
144 181
144 196
144 219
144 244
144 250
144 268
144 315
144 365
144 367
144 432
144 472
144 479
144 485
144 534
144 560
144 562
144 579
144 588
144 591
144 599
144 611
144 633
144 649
144 658
144 663
144 680
144 698
144 708
144 711
144 714
144 715
144 725
144 737
144 744
145 166
145 169
145 228
145 239
145 260
145 263
145 281
145 286
145 291
145 333
145 362
145 444
145 452
145 458
145 486
145 525
145 532
145 578
145 588
145 652
145 728
145 730
145 736
145 749
146 186
146 187
146 221
146 225
146 258
146 262
146 264
146 395
146 447
146 462
146 469
146 515
146 533
146 569
146 648
146 651
146 686
146 718
146 722
147 160
147 170
147 242
147 275
147 288
147 320
147 323
147 344
147 350
147 386
147 426
147 430
147 486
147 519
147 529
147 542
147 562
147 610
147 637
147 646
147 707
147 719
147 739
147 745
148 151
148 160
148 183
148 236
148 247
148 270
148 275
148 276
148 324
148 329
148 357
148 421
148 429
148 440
148 461
148 483
148 502
148 531
148 540
148 542
148 568
148 575
148 580
148 606
148 622
148 639
148 662
148 703
148 746
149 167
149 223
149 285
149 293
149 295
149 331
149 338
149 389
149 403
149 404
149 426
149 457
149 467
149 481
149 516
149 518
149 569
149 575
149 576
149 608
149 623
149 691
149 733
150 189
150 216
150 259
150 277
150 281
150 286
150 297
150 303
150 363
150 364
150 389
150 394
150 395
150 398
150 472
150 475
150 486
150 488
150 515
150 530
150 564
150 566
150 569
150 611
150 618
150 645
150 659
150 667
150 677
150 683
150 700
150 714
150 726
150 727
150 749
151 159
151 160
151 192
151 194
151 207
151 210
151 213
151 233
151 265
151 279
151 302
151 329
151 361
151 381
151 414
151 451
151 457
151 469
151 509
151 517
151 526
151 528
151 551
151 586
151 631
151 641
151 655
151 658
151 677
151 696
151 722
152 190
152 208
152 215
152 220
152 229
152 409
152 420
152 434
152 435
152 487
152 516
152 523
152 524
152 541
152 566
152 580
152 601
152 611
152 626
152 628
152 648
152 665
152 706
153 154
153 156
153 182
153 212
153 214
153 243
153 276
153 309
153 353
153 363
153 366
153 370
153 433
153 474
153 485
153 507
153 517
153 535
153 540
153 587
153 588
153 597
153 606
153 607
153 612
153 618
153 620
153 622
153 641
153 648
153 654
153 677
153 711
153 720
153 748
154 173
154 181
154 186
154 190
154 249
154 307
154 308
154 336
154 356
154 375
154 417
154 470
154 520
154 550
154 568
154 577
154 584
154 591
154 595
154 614
154 655
154 670
154 696
154 704
154 724
154 731
155 200
155 206
155 282
155 290
155 321
155 383
155 401
155 408
155 413
155 415
155 426
155 446
155 470
155 491
155 512
155 549
155 552
155 555
155 591
155 618
155 669
155 686
155 695
155 699
155 731
156 162
156 164
156 198
156 214
156 227
156 229
156 257
156 275
156 285
156 288
156 304
156 328
156 349
156 363
156 381
156 438
156 453
156 477
156 484
156 551
156 562
156 577
156 581
156 616
156 624
156 632
156 655
157 202
157 234
157 293
157 329
157 348
157 352
157 353
157 371
157 401
157 442
157 455
157 473
157 475
157 558
157 617
157 629
157 666
157 678
157 700
157 713
157 714
157 717
158 174
158 175
158 232
158 235
158 246
158 253
158 260
158 266
158 313
158 361
158 375
158 376
158 386
158 388
158 400
158 458
158 499
158 574
158 590
158 593
158 647
158 707
158 728
159 233
159 247
159 254
159 300
159 319
159 379
159 384
159 391
159 410
159 419
159 433
159 510
159 527
159 544
159 579
159 589
159 699
160 212
160 222
160 239
160 245
160 248
160 272
160 286
160 324
160 345
160 367
160 374
160 375
160 485
160 490
160 506
160 571
160 577
160 595
160 624
160 633
160 645
160 657
160 667
160 694
160 719
160 726
161 181
161 185
161 197
161 205
161 294
161 295
161 339
161 347
161 358
161 377
161 393
161 447
161 452
161 462
161 468
161 485
161 539
161 552
161 582
161 593
161 594
161 604
161 642
161 651
161 686
161 690
161 716
161 730
162 166
162 167
162 192
162 197
162 222
162 300
162 313
162 325
162 372
162 376
162 389
162 410
162 463
162 471
162 520
162 521
162 540
162 546
162 574
162 584
162 603
162 650
162 680
162 703
162 711
162 723
162 727
162 728
163 180
163 188
163 212
163 232
163 249
163 264
163 273
163 319
163 382
163 383
163 399
163 411
163 434
163 446
163 458
163 465
163 470
163 473
163 476
163 479
163 483
163 489
163 490
163 496
163 504
163 509
163 529
163 566
163 592
163 617
163 634
163 635
163 647
163 729
164 177
164 178
164 206
164 241
164 250
164 266
164 277
164 345
164 361
164 367
164 408
164 435
164 442
164 472
164 497
164 502
164 504
164 548
164 551
164 584
164 587
164 603
164 610
164 612
164 620
164 654
164 682
164 687
164 718
165 166
165 213
165 216
165 222
165 233
165 235
165 243
165 248
165 251
165 267
165 271
165 298
165 317
165 321
165 333
165 368
165 371
165 395
165 401
165 416
165 423
165 424
165 428
165 449
165 452
165 464
165 489
165 510
165 526
165 586
165 605
165 627
165 660
165 671
165 673
165 701
165 716
166 196
166 202
166 221
166 228
166 288
166 290
166 329
166 355
166 502
166 511
166 520
166 536
166 579
166 626
166 638
166 644
166 654
166 657
166 710
166 717
166 719
166 725
167 177
167 210
167 212
167 237
167 313
167 351
167 355
167 365
167 370
167 403
167 431
167 456
167 465
167 476
167 496
167 497
167 542
167 561
167 567
167 578
167 592
167 600
167 601
167 619
167 633
167 634
167 649
167 654
167 730
167 739
168 178
168 192
168 244
168 303
168 307
168 317
168 353
168 388
168 449
168 456
168 460
168 464
168 524
168 549
168 567
168 630
168 640
168 652
168 668
168 684
168 700
168 723
168 737
168 739
168 741
169 177
169 255
169 262
169 279
169 305
169 335
169 402
169 454
169 455
169 456
169 517
169 560
169 572
169 592
169 626
169 646
169 661
169 731
170 226
170 231
170 237
170 248
170 260
170 263
170 281
170 311
170 324
170 331
170 340
170 346
170 351
170 356
170 371
170 412
170 441
170 456
170 535
170 587
170 635
170 721
171 263
171 267
171 286
171 289
171 317
171 320
171 355
171 420
171 424
171 441
171 495
171 501
171 527
171 528
171 541
171 551
171 559
171 603
171 607
171 609
171 614
171 685
172 218
172 224
172 279
172 282
172 283
172 286
172 294
172 309
172 332
172 375
172 377
172 430
172 431
172 462
172 509
172 535
172 561
172 562
172 575
172 577
172 590
172 663
172 669
172 671
172 725
172 726
173 186
173 211
173 224
173 234
173 241
173 272
173 274
173 287
173 348
173 351
173 355
173 391
173 400
173 411
173 412
173 414
173 433
173 443
173 492
173 506
173 512
173 541
173 561
173 575
173 594
173 600
173 632
173 668
173 709
173 720
174 180
174 211
174 212
174 220
174 227
174 260
174 269
174 296
174 312
174 343
174 363
174 377
174 382
174 394
174 400
174 413
174 432
174 435
174 471
174 483
174 493
174 496
174 499
174 505
174 632
174 668
174 679
174 740
175 229
175 252
175 258
175 279
175 282
175 307
175 326
175 339
175 350
175 362
175 381
175 453
175 466
175 470
175 472
175 489
175 531
175 576
175 580
175 596
175 598
175 609
175 613
176 181
176 194
176 208
176 220
176 240
176 270
176 279
176 305
176 311
176 349
176 395
176 405
176 443
176 455
176 466
176 558
176 585
176 591
176 593
176 604
176 613
176 618
176 625
176 632
176 640
176 643
176 700
176 709
176 714
176 735
177 194
177 204
177 249
177 251
177 263
177 282
177 294
177 295
177 300
177 303
177 317
177 327
177 341
177 355
177 364
177 378
177 398
177 418
177 444
177 452
177 459
177 474
177 476
177 483
177 484
177 502
177 538
177 562
177 586
177 591
177 594
177 653
177 676
177 701
177 702
177 707
177 713
177 736
178 180
178 204
178 213
178 231
178 233
178 252
178 254
178 264
178 268
178 271
178 287
178 311
178 337
178 373
178 419
178 448
178 471
178 480
178 494
178 524
178 539
178 545
178 548
178 553
178 556
178 583
178 641
178 657
178 679
178 730
179 221
179 251
179 255
179 281
179 303
179 324
179 326
179 331
179 345
179 348
179 373
179 396
179 408
179 450
179 468
179 508
179 522
179 529
179 542
179 554
179 570
179 583
179 589
179 592
179 596
179 647
179 692
179 717
179 737
179 745
180 201
180 258
180 286
180 295
180 311
180 317
180 353
180 372
180 388
180 403
180 419
180 425
180 433
180 441
180 443
180 446
180 476
180 502
180 519
180 525
180 535
180 546
180 598
180 645
180 655
181 198
181 282
181 311
181 348
181 368
181 374
181 394
181 442
181 464
181 471
181 485
181 493
181 507
181 521
181 536
181 545
181 553
181 571
181 575
181 576
181 591
181 657
181 665
181 702
181 714
181 717
181 728
181 745
182 188
182 259
182 260
182 281
182 308
182 314
182 366
182 398
182 418
182 436
182 454
182 456
182 482
182 526
182 534
182 547
182 574
182 585
182 619
182 707
182 726
183 192
183 206
183 234
183 239
183 247
183 252
183 279
183 393
183 394
183 422
183 426
183 449
183 453
183 464
183 500
183 527
183 535
183 565
183 577
183 583
183 592
183 652
183 702
183 725
184 199
184 201
184 230
184 270
184 307
184 334
184 357
184 361
184 367
184 417
184 443
184 468
184 570
184 574
184 594
184 621
184 627
184 628
184 692
184 697
184 749
185 230
185 236
185 238
185 278
185 293
185 360
185 368
185 394
185 442
185 464
185 479
185 517
185 555
185 559
185 574
185 576
185 578
185 583
185 625
185 659
185 663
185 727
185 743
185 745
186 206
186 210
186 239
186 246
186 264
186 276
186 280
186 298
186 302
186 312
186 319
186 355
186 377
186 399
186 409
186 410
186 421
186 426
186 469
186 504
186 520
186 526
186 532
186 566
186 576
186 585
186 596
186 621
186 642
186 674
186 722
186 736
186 740
187 188
187 285
187 288
187 299
187 320
187 351
187 372
187 409
187 464
187 480
187 497
187 498
187 499
187 513
187 533
187 556
187 569
187 649
187 650
187 662
187 676
187 686
187 706
187 707
187 724
188 189
188 190
188 204
188 232
188 254
188 328
188 333
188 362
188 364
188 400
188 421
188 437
188 438
188 472
188 544
188 590
188 604
188 607
188 619
188 653
188 661
188 696
188 701
189 193
189 194
189 204
189 263
189 300
189 321
189 345
189 376
189 384
189 447
189 503
189 516
189 526
189 535
189 564
189 570
189 619
189 622
189 628
189 634
189 638
189 652
189 676
189 680
190 215
190 227
190 257
190 310
190 326
190 367
190 391
190 394
190 395
190 406
190 426
190 454
190 484
190 491
190 552
190 559
190 562
190 581
190 605
190 653
190 660
190 708
190 723
191 193
191 230
191 249
191 265
191 267
191 273
191 278
191 287
191 305
191 362
191 379
191 393
191 424
191 432
191 454
191 457
191 504
191 535
191 582
191 590
191 609
191 617
191 626
191 627
191 640
191 641
191 647
191 655
191 656
191 672
191 679
191 684
191 699
192 211
192 213
192 231
192 237
192 241
192 259
192 266
192 320
192 357
192 365
192 368
192 486
192 523
192 532
192 543
192 562
192 583
192 635
192 657
192 665
192 697
192 733
193 241
193 246
193 272
193 290
193 430
193 437
193 449
193 456
193 469
193 473
193 529
193 534
193 546
193 551
193 579
193 585
193 589
193 645
193 681
193 693
193 700
193 712
194 229
194 235
194 238
194 253
194 257
194 269
194 275
194 289
194 291
194 311
194 343
194 363
194 374
194 383
194 408
194 425
194 478
194 493
194 508
194 542
194 554
194 568
194 569
194 578
194 587
194 602
194 615
194 622
194 648
194 669
194 673
194 676
194 680
194 706
194 721
195 205
195 209
195 217
195 219
195 235
195 245
195 254
195 263
195 268
195 272
195 283
195 290
195 294
195 301
195 380
195 418
195 430
195 439
195 445
195 469
195 473
195 551
195 557
195 559
195 603
195 605
195 695
195 743
196 200
196 229
196 242
196 253
196 264
196 294
196 322
196 339
196 363
196 369
196 370
196 438
196 439
196 443
196 495
196 496
196 509
196 522
196 543
196 545
196 547
196 553
196 595
196 599
196 664
196 747
196 749
197 221
197 260
197 269
197 270
197 288
197 289
197 300
197 306
197 307
197 364
197 372
197 397
197 431
197 457
197 462
197 498
197 512
197 530
197 589
197 596
197 616
197 625
197 644
197 646
197 667
197 672
197 681
198 206
198 217
198 264
198 268
198 296
198 319
198 357
198 415
198 435
198 446
198 454
198 465
198 486
198 508
198 557
198 575
198 583
198 585
198 594
198 606
198 655
198 656
198 690
198 731
199 216
199 228
199 230
199 261
199 263
199 283
199 310
199 327
199 340
199 368
199 375
199 423
199 432
199 445
199 496
199 512
199 514
199 517
199 520
199 568
199 611
199 625
199 651
199 727
199 732
200 207
200 208
200 228
200 233
200 236
200 253
200 256
200 261
200 269
200 278
200 361
200 390
200 393
200 415
200 433
200 445
200 451
200 466
200 490
200 496
200 519
200 525
200 539
200 549
200 561
200 564
200 572
200 605
200 617
200 621
200 642
200 706
200 727
200 731
201 223
201 230
201 234
201 272
201 299
201 301
201 378
201 406
201 433
201 434
201 461
201 488
201 541
201 549
201 562
201 588
201 616
201 624
201 626
201 628
201 703
201 707
201 710
201 719
201 726
201 741
202 235
202 253
202 267
202 295
202 349
202 385
202 407
202 436
202 458
202 464
202 473
202 475
202 476
202 558
202 559
202 571
202 580
202 682
202 702
202 719
202 723
202 747
203 225
203 242
203 244
203 287
203 307
203 369
203 378
203 379
203 423
203 424
203 502
203 527
203 559
203 565
203 570
203 576
203 584
203 604
203 626
203 670
203 676
203 693
203 733
204 224
204 254
204 279
204 292
204 310
204 312
204 322
204 336
204 344
204 384
204 415
204 424
204 447
204 448
204 463
204 480
204 490
204 496
204 570
204 584
204 606
204 661
204 745
205 236
205 241
205 275
205 282
205 320
205 328
205 357
205 358
205 419
205 446
205 457
205 482
205 490
205 491
205 601
205 624
205 642
205 682
205 743
206 236
206 271
206 305
206 306
206 320
206 326
206 334
206 336
206 476
206 517
206 552
206 567
206 568
206 575
206 592
206 699
206 724
206 725
206 731
207 208
207 250
207 264
207 275
207 341
207 357
207 365
207 379
207 394
207 421
207 467
207 518
207 530
207 551
207 571
207 627
207 642
207 680
207 684
207 719
207 722
207 725
207 730
208 241
208 244
208 268
208 277
208 290
208 334
208 379
208 389
208 418
208 421
208 435
208 451
208 520
208 534
208 550
208 554
208 566
208 578
208 610
208 622
208 687
208 705
208 741
208 747
209 216
209 220
209 233
209 241
209 251
209 264
209 277
209 317
209 321
209 325
209 350
209 384
209 391
209 418
209 423
209 443
209 469
209 471
209 491
209 506
209 617
209 642
209 651
209 653
209 704
209 734
209 740
209 744
210 221
210 252
210 278
210 284
210 290
210 328
210 332
210 356
210 360
210 362
210 366
210 377
210 424
210 439
210 450
210 474
210 501
210 554
210 560
210 570
210 584
210 597
210 617
210 624
210 633
210 645
210 659
210 668
210 692
210 709
210 714
210 727
211 214
211 224
211 318
211 354
211 378
211 387
211 393
211 404
211 431
211 446
211 484
211 547
211 556
211 569
211 575
211 624
211 687
211 704
211 705
211 719
212 222
212 245
212 253
212 281
212 300
212 301
212 305
212 337
212 341
212 348
212 431
212 485
212 505
212 524
212 532
212 622
212 645
212 646
212 664
212 694
212 720
212 740
213 229
213 258
213 301
213 328
213 330
213 372
213 394
213 403
213 408
213 451
213 462
213 481
213 485
213 519
213 522
213 530
213 532
213 567
213 616
213 624
213 629
213 655
213 710
213 725
214 227
214 290
214 298
214 300
214 321
214 447
214 501
214 549
214 556
214 558
214 587
214 615
214 631
214 686
214 699
214 700
214 726
214 733
214 737
215 249
215 267
215 319
215 320
215 348
215 357
215 370
215 371
215 398
215 410
215 431
215 481
215 506
215 514
215 541
215 595
215 621
215 638
215 648
215 651
215 666
215 706
215 732
215 734
215 745
216 220
216 235
216 239
216 283
216 298
216 364
216 452
216 458
216 478
216 482
216 491
216 498
216 507
216 545
216 618
216 620
216 624
216 633
216 636
216 639
216 652
216 670
216 707
216 709
216 730
216 738
217 248
217 333
217 356
217 377
217 381
217 387
217 397
217 398
217 448
217 451
217 455
217 494
217 496
217 511
217 546
217 557
217 573
217 619
217 659
217 668
217 683
218 221
218 244
218 283
218 302
218 314
218 345
218 446
218 459
218 469
218 477
218 481
218 489
218 496
218 498
218 510
218 519
218 526
218 588
218 598
218 643
218 685
218 699
218 708
218 711
219 220
219 242
219 270
219 404
219 412
219 446
219 501
219 540
219 548
219 635
219 652
219 662
219 748
220 223
220 239
220 301
220 315
220 319
220 365
220 405
220 415
220 456
220 464
220 489
220 519
220 546
220 549
220 558
220 570
220 571
220 591
220 656
220 663
220 697
220 703
220 712
220 715
220 717
220 736
220 741
221 233
221 268
221 274
221 294
221 310
221 344
221 410
221 411
221 466
221 479
221 488
221 514
221 557
221 586
221 619
221 624
221 640
221 645
221 649
221 662
221 677
221 691
221 695
221 726
221 740
221 741
222 255
222 271
222 306
222 310
222 313
222 316
222 349
222 365
222 375
222 377
222 381
222 385
222 397
222 402
222 405
222 422
222 436
222 437
222 447
222 480
222 505
222 506
222 514
222 557
222 564
222 568
222 574
222 577
222 612
222 623
222 624
222 659
222 662
222 723
223 272
223 279
223 286
223 294
223 320
223 333
223 352
223 402
223 432
223 443
223 459
223 463
223 465
223 478
223 510
223 539
223 571
223 577
223 580
223 583
223 584
223 613
223 621
223 648
223 663
223 686
223 737
223 742
224 232
224 249
224 277
224 337
224 345
224 374
224 388
224 416
224 439
224 467
224 522
224 620
224 651
224 675
224 683
224 712
225 232
225 264
225 267
225 287
225 291
225 327
225 338
225 341
225 368
225 391
225 404
225 417
225 419
225 420
225 450
225 458
225 459
225 472
225 480
225 511
225 516
225 569
225 623
225 633
225 661
225 712
225 741
226 228
226 235
226 240
226 255
226 271
226 272
226 286
226 291
226 303
226 313
226 347
226 357
226 388
226 391
226 416
226 445
226 447
226 463
226 464
226 481
226 509
226 520
226 538
226 556
226 607
226 608
226 610
226 616
226 625
226 632
226 693
226 702
226 705
226 712
226 732
226 737
226 740
226 742
227 258
227 260
227 262
227 265
227 282
227 285
227 336
227 357
227 414
227 418
227 427
227 448
227 524
227 559
227 585
227 647
227 662
227 668
227 686
227 730
227 744
228 234
228 270
228 296
228 298
228 331
228 358
228 359
228 368
228 380
228 383
228 390
228 402
228 407
228 451
228 495
228 515
228 529
228 537
228 591
228 657
228 660
228 664
228 669
228 708
228 732
229 233
229 245
229 265
229 268
229 275
229 287
229 294
229 332
229 335
229 364
229 389
229 390
229 394
229 420
229 428
229 474
229 479
229 480
229 494
229 500
229 503
229 525
229 541
229 563
229 582
229 654
229 656
229 657
229 694
229 697
230 239
230 248
230 257
230 260
230 289
230 353
230 404
230 406
230 432
230 444
230 457
230 462
230 483
230 497
230 517
230 533
230 547
230 552
230 559
230 561
230 570
230 614
230 644
230 666
230 712
230 720
230 739
231 273
231 310
231 327
231 357
231 358
231 395
231 409
231 412
231 418
231 461
231 485
231 494
231 566
231 571
231 596
231 609
231 629
231 634
231 733
231 743
232 253
232 260
232 341
232 433
232 442
232 464
232 474
232 505
232 507
232 591
232 601
232 624
232 629
232 645
232 649
232 683
232 693
232 699
232 704
232 725
232 728
232 745
232 746
233 253
233 266
233 267
233 283
233 295
233 329
233 336
233 343
233 346
233 350
233 351
233 367
233 370
233 384
233 389
233 477
233 478
233 510
233 514
233 566
233 571
233 595
233 601
233 606
233 656
233 670
233 693
233 732
233 740
234 247
234 268
234 273
234 321
234 376
234 385
234 401
234 421
234 427
234 450
234 457
234 484
234 523
234 528
234 529
234 586
234 588
234 592
234 620
234 658
234 695
234 700
234 724
234 733
234 739
235 237
235 243
235 270
235 272
235 276
235 297
235 308
235 395
235 412
235 421
235 433
235 473
235 480
235 481
235 505
235 540
235 549
235 571
235 605
235 606
235 618
235 622
235 624
235 655
235 657
235 699
236 272
236 278
236 313
236 341
236 360
236 383
236 421
236 440
236 518
236 573
236 603
236 654
236 673
236 675
236 679
236 689
236 716
236 740
236 742
237 249
237 250
237 264
237 272
237 279
237 316
237 331
237 334
237 348
237 350
237 354
237 358
237 380
237 402
237 424
237 435
237 467
237 479
237 480
237 502
237 507
237 511
237 513
237 528
237 550
237 581
237 622
237 629
237 686
237 689
237 697
238 241
238 317
238 364
238 374
238 413
238 430
238 485
238 511
238 522
238 523
238 534
238 590
238 601
238 603
238 650
238 655
238 659
238 703
238 715
239 241
239 371
239 418
239 427
239 432
239 453
239 464
239 482
239 489
239 530
239 548
239 556
239 558
239 580
239 611
239 623
239 635
239 643
239 647
239 666
239 684
239 696
239 701
239 735
239 737
240 249
240 262
240 277
240 311
240 320
240 325
240 339
240 359
240 371
240 456
240 468
240 563
240 593
240 603
240 620
240 640
240 653
240 669
240 707
240 734
241 272
241 278
241 291
241 323
241 347
241 363
241 369
241 377
241 402
241 434
241 444
241 455
241 488
241 504
241 511
241 517
241 543
241 677
241 707
241 718
241 735
242 258
242 318
242 323
242 327
242 339
242 341
242 365
242 368
242 371
242 408
242 411
242 415
242 423
242 432
242 444
242 445
242 449
242 464
242 465
242 472
242 493
242 508
242 511
242 529
242 553
242 614
242 615
242 625
242 643
242 669
242 712
242 736
243 280
243 283
243 284
243 292
243 300
243 305
243 308
243 317
243 331
243 359
243 386
243 391
243 405
243 426
243 442
243 443
243 486
243 525
243 527
243 537
243 556
243 563
243 570
243 622
243 695
243 702
243 710
243 734
244 292
244 338
244 363
244 385
244 400
244 409
244 439
244 458
244 469
244 478
244 482
244 487
244 529
244 570
244 583
244 637
244 680
244 739
245 282
245 303
245 386
245 399
245 424
245 432
245 472
245 482
245 523
245 542
245 560
245 566
245 570
245 575
245 584
245 636
245 638
245 671
245 744
246 255
246 257
246 266
246 278
246 297
246 303
246 337
246 370
246 382
246 402
246 433
246 445
246 446
246 459
246 461
246 474
246 517
246 535
246 540
246 572
246 591
246 602
246 620
246 664
246 670
246 675
246 685
246 693
246 699
247 283
247 295
247 319
247 326
247 350
247 380
247 392
247 426
247 428
247 444
247 478
247 526
247 531
247 538
247 540
247 547
247 561
247 602
247 655
247 656
247 657
247 718
247 742
247 744
248 252
248 275
248 278
248 279
248 383
248 394
248 432
248 467
248 468
248 542
248 549
248 565
248 581
248 592
248 609
248 649
248 652
248 656
248 664
248 678
248 684
248 740
248 747
248 749
249 270
249 300
249 362
249 367
249 405
249 416
249 427
249 429
249 454
249 512
249 540
249 543
249 554
249 578
249 579
249 598
249 604
249 629
249 641
249 643
249 658
249 734
249 746
250 256
250 261
250 266
250 273
250 275
250 284
250 305
250 325
250 343
250 404
250 433
250 437
250 452
250 474
250 477
250 495
250 528
250 567
250 577
250 585
250 626
250 640
250 659
250 660
250 686
250 698
250 700
250 714
251 276
251 279
251 292
251 312
251 320
251 331
251 344
251 362
251 375
251 380
251 385
251 415
251 428
251 438
251 447
251 470
251 474
251 478
251 479
251 481
251 528
251 542
251 552
251 581
251 592
251 593
251 638
251 639
251 678
251 681
251 733
251 734
252 280
252 328
252 345
252 378
252 386
252 434
252 439
252 446
252 458
252 485
252 518
252 529
252 533
252 534
252 539
252 546
252 549
252 553
252 578
252 588
252 619
252 631
252 636
252 678
252 681
252 745
252 748
253 280
253 283
253 307
253 308
253 316
253 348
253 374
253 378
253 379
253 396
253 401
253 423
253 427
253 436
253 443
253 469
253 492
253 503
253 513
253 557
253 590
253 598
253 625
253 646
253 652
253 701
253 704
253 723
253 724
254 327
254 337
254 340
254 355
254 363
254 382
254 383
254 390
254 410
254 418
254 424
254 439
254 481
254 519
254 522
254 549
254 586
254 613
254 633
254 651
254 657
254 664
254 697
254 709
254 713
254 730
254 739
254 745
255 256
255 298
255 319
255 358
255 411
255 417
255 420
255 430
255 461
255 465
255 526
255 532
255 542
255 564
255 566
255 567
255 584
255 598
255 608
255 626
255 634
255 688
256 282
256 301
256 339
256 342
256 369
256 386
256 387
256 407
256 417
256 431
256 434
256 470
256 479
256 501
256 567
256 574
256 606
256 647
256 656
256 680
256 684
256 726
256 731
256 738
257 266
257 280
257 353
257 354
257 400
257 424
257 439
257 465
257 466
257 491
257 512
257 545
257 548
257 554
257 556
257 573
257 608
257 634
257 640
257 676
257 745
258 293
258 296
258 303
258 359
258 366
258 394
258 405
258 416
258 426
258 433
258 438
258 439
258 475
258 529
258 530
258 550
258 565
258 574
258 584
258 585
258 680
258 711
258 714
258 736
259 260
259 272
259 289
259 314
259 317
259 320
259 347
259 369
259 373
259 391
259 418
259 446
259 509
259 530
259 543
259 573
259 615
259 619
259 637
259 652
259 660
259 675
259 726
260 284
260 331
260 350
260 357
260 365
260 379
260 382
260 507
260 578
260 624
260 653
260 677
260 683
260 701
260 722
261 289
261 312
261 330
261 372
261 386
261 393
261 396
261 399
261 459
261 485
261 556
261 563
261 572
261 624
261 659
261 708
261 724
261 736
262 311
262 312
262 313
262 317
262 335
262 341
262 374
262 382
262 390
262 411
262 412
262 462
262 505
262 511
262 520
262 610
262 619
262 624
262 633
262 643
262 654
262 661
262 697
262 744
263 274
263 297
263 326
263 334
263 351
263 364
263 389
263 390
263 402
263 428
263 449
263 458
263 496
263 512
263 513
263 533
263 535
263 545
263 570
263 587
263 599
263 634
263 640
263 678
263 683
263 729
264 348
264 350
264 369
264 380
264 392
264 402
264 410
264 425
264 430
264 442
264 455
264 466
264 471
264 476
264 505
264 509
264 529
264 584
264 586
264 599
264 627
264 651
264 689
264 698
264 737
265 326
265 338
265 354
265 374
265 397
265 399
265 404
265 420
265 424
265 481
265 530
265 542
265 571
265 600
265 623
265 666
265 710
265 713
265 728
266 267
266 273
266 290
266 310
266 326
266 337
266 341
266 372
266 382
266 384
266 391
266 404
266 433
266 440
266 470
266 576
266 580
266 581
266 635
266 645
266 677
266 689
266 702
266 708
266 711
266 718
266 721
266 722
266 742
267 269
267 295
267 303
267 309
267 312
267 346
267 350
267 356
267 362
267 391
267 425
267 440
267 449
267 471
267 480
267 486
267 492
267 496
267 509
267 550
267 562
267 607
267 621
267 670
267 672
267 690
267 699
267 715
268 270
268 289
268 293
268 306
268 323
268 333
268 344
268 382
268 396
268 421
268 432
268 457
268 459
268 497
268 498
268 601
268 673
268 675
268 695
268 700
268 726
268 729
268 744
269 309
269 317
269 322
269 350
269 362
269 365
269 382
269 425
269 445
269 454
269 478
269 505
269 510
269 524
269 549
269 560
269 670
269 705
269 721
269 738
269 741
269 742
270 327
270 334
270 362
270 375
270 376
270 388
270 411
270 415
270 431
270 457
270 493
270 520
270 521
270 522
270 541
270 542
270 547
270 575
270 585
270 611
270 635
270 696
270 740
271 286
271 335
271 342
271 346
271 352
271 357
271 369
271 401
271 404
271 424
271 456
271 459
271 491
271 494
271 513
271 569
271 591
271 598
271 614
271 623
271 657
271 685
271 687
271 709
271 720
272 308
272 321
272 323
272 424
272 434
272 458
272 463
272 470
272 483
272 491
272 556
272 572
272 578
272 621
272 625
272 696
272 710
272 737
272 738
273 277
273 278
273 302
273 363
273 384
273 399
273 400
273 405
273 413
273 451
273 489
273 490
273 495
273 519
273 539
273 572
273 590
273 612
273 614
273 622
273 631
273 647
273 651
273 692
273 706
273 709
273 740
273 745
273 748
274 284
274 290
274 291
274 301
274 316
274 345
274 355
274 377
274 389
274 391
274 420
274 423
274 437
274 441
274 539
274 542
274 553
274 579
274 583
274 585
274 593
274 594
274 598
274 616
274 634
274 635
274 663
274 681
274 704
274 740
275 338
275 358
275 364
275 384
275 526
275 553
275 595
275 602
275 706
275 711
275 726
276 280
276 308
276 323
276 344
276 362
276 384
276 397
276 426
276 446
276 496
276 577
276 582
276 590
276 624
276 634
276 666
276 725
276 737
277 332
277 355
277 374
277 379
277 394
277 432
277 439
277 459
277 490
277 532
277 538
277 548
277 597
277 598
277 612
277 619
277 630
277 635
277 645
277 675
277 704
277 708
277 710
277 714
277 722
277 726
277 727
277 729
278 285
278 289
278 294
278 326
278 345
278 348
278 353
278 368
278 404
278 409
278 410
278 426
278 453
278 471
278 475
278 488
278 526
278 536
278 550
278 606
278 619
278 642
278 647
278 687
278 697
278 718
279 317
279 345
279 356
279 379
279 390
279 407
279 429
279 442
279 454
279 497
279 519
279 545
279 548
279 628
279 689
279 741
280 293
280 331
280 336
280 337
280 343
280 351
280 377
280 463
280 472
280 477
280 497
280 554
280 557
280 592
280 600
280 609
280 647
280 671
280 691
280 713
280 736
280 740
280 747
280 748
281 286
281 375
281 378
281 387
281 393
281 410
281 436
281 457
281 493
281 509
281 529
281 559
281 608
281 624
281 637
281 658
281 678
281 699
281 706
281 736
281 744
281 747
282 286
282 321
282 389
282 390
282 421
282 456
282 474
282 491
282 528
282 531
282 547
282 556
282 558
282 562
282 583
282 599
282 673
282 688
282 725
282 727
283 361
283 513
283 523
283 543
283 556
283 590
283 605
283 633
283 635
283 671
283 679
283 685
283 713
283 720
283 727
283 733
284 293
284 300
284 354
284 401
284 417
284 428
284 438
284 446
284 459
284 480
284 491
284 495
284 497
284 521
284 542
284 547
284 574
284 604
284 614
284 651
284 697
284 700
284 740
285 289
285 294
285 302
285 318
285 334
285 348
285 350
285 361
285 366
285 426
285 432
285 480
285 490
285 542
285 547
285 580
285 588
285 625
285 634
285 638
285 653
285 703
285 747
286 294
286 312
286 315
286 332
286 341
286 352
286 371
286 378
286 398
286 421
286 440
286 453
286 508
286 517
286 532
286 543
286 584
286 608
286 642
286 659
286 683
286 699
286 706
287 292
287 300
287 311
287 331
287 349
287 361
287 422
287 431
287 444
287 459
287 484
287 501
287 560
287 640
287 676
287 679
287 694
287 696
287 724
287 728
287 737
287 741
288 335
288 368
288 391
288 419
288 442
288 455
288 463
288 496
288 498
288 499
288 501
288 505
288 531
288 540
288 568
288 590
288 598
288 608
288 626
288 635
288 671
288 675
288 686
288 704
288 712
288 735
288 747
289 296
289 312
289 382
289 383
289 392
289 404
289 444
289 522
289 525
289 528
289 567
289 622
289 629
289 639
289 640
289 644
289 649
289 687
289 696
289 708
289 729
289 739
290 313
290 320
290 326
290 347
290 391
290 406
290 414
290 425
290 475
290 516
290 616
290 627
290 636
290 686
290 696
290 699
290 707
290 720
290 740
291 307
291 357
291 397
291 417
291 419
291 433
291 444
291 449
291 458
291 472
291 601
291 622
291 659
291 695
291 702
291 708
291 711
292 307
292 311
292 321
292 325
292 373
292 391
292 433
292 444
292 454
292 460
292 522
292 613
292 635
292 686
292 716
292 728
292 731
293 326
293 331
293 344
293 364
293 403
293 424
293 453
293 492
293 630
293 650
293 664
293 689
293 696
293 732
294 302
294 352
294 354
294 370
294 379
294 381
294 427
294 474
294 485
294 488
294 497
294 501
294 525
294 568
294 591
294 607
294 636
294 677
295 297
295 305
295 325
295 327
295 332
295 338
295 369
295 381
295 441
295 452
295 471
295 506
295 508
295 518
295 559
295 578
295 612
295 626
295 629
295 639
295 646
295 682
295 706
296 344
296 401
296 412
296 475
296 489
296 498
296 522
296 590
296 617
296 620
296 646
296 655
296 670
296 677
296 679
296 680
296 681
296 683
296 702
297 298
297 322
297 334
297 343
297 361
297 395
297 402
297 416
297 427
297 452
297 468
297 472
297 498
297 505
297 507
297 512
297 523
297 531
297 537
297 614
297 636
297 664
297 684
297 706
297 723
297 725
297 734
297 743
298 331
298 389
298 403
298 484
298 492
298 584
298 609
298 654
298 718
298 741
299 311
299 324
299 331
299 385
299 416
299 425
299 456
299 461
299 472
299 478
299 517
299 529
299 531
299 552
299 562
299 579
299 605
299 607
299 608
299 619
299 645
299 650
299 653
299 655
299 658
299 703
299 712
299 718
299 724
299 744
300 301
300 307
300 308
300 365
300 371
300 385
300 413
300 446
300 460
300 481
300 495
300 541
300 576
300 582
300 586
300 633
300 639
300 661
300 673
300 693
300 725
300 727
300 734
300 747
301 302
301 307
301 359
301 403
301 412
301 435
301 444
301 453
301 456
301 462
301 465
301 479
301 495
301 547
301 554
301 599
301 605
301 633
301 638
301 641
301 649
301 653
301 708
301 711
301 717
301 723
301 730
301 747
302 325
302 342
302 353
302 360
302 372
302 374
302 387
302 399
302 416
302 428
302 432
302 488
302 489
302 521
302 539
302 634
302 635
302 638
302 640
302 645
302 654
302 681
302 684
302 691
302 699
302 725
303 391
303 428
303 467
303 480
303 542
303 555
303 607
303 659
303 666
303 669
303 693
303 716
304 328
304 344
304 352
304 355
304 365
304 373
304 387
304 406
304 416
304 469
304 486
304 502
304 509
304 540
304 541
304 562
304 577
304 601
304 621
304 625
304 644
304 652
304 672
304 699
304 715
304 728
304 741
304 745
305 348
305 400
305 443
305 466
305 473
305 490
305 499
305 531
305 541
305 555
305 584
305 585
305 608
305 609
305 627
305 655
305 664
305 696
305 709
305 723
305 732
306 345
306 351
306 354
306 357
306 371
306 382
306 424
306 470
306 533
306 554
306 590
306 604
306 640
306 668
306 685
307 319
307 332
307 337
307 356
307 396
307 417
307 423
307 425
307 429
307 430
307 446
307 543
307 547
307 559
307 596
307 623
307 701
307 703
307 742
307 746
308 347
308 378
308 382
308 393
308 407
308 420
308 428
308 429
308 435
308 450
308 497
308 574
308 592
308 595
308 602
308 611
308 623
308 626
308 627
308 671
308 686
308 734
308 739
309 324
309 344
309 362
309 379
309 414
309 427
309 428
309 468
309 480
309 491
309 494
309 520
309 526
309 565
309 580
309 585
309 588
309 590
309 619
309 628
309 714
309 727
309 739
310 348
310 355
310 398
310 422
310 431
310 450
310 481
310 499
310 507
310 509
310 528
310 534
310 576
310 584
310 660
310 740
310 741
311 313
311 322
311 359
311 368
311 389
311 399
311 403
311 423
311 449
311 453
311 461
311 469
311 475
311 529
311 560
311 620
311 643
311 646
311 651
311 707
311 715
311 719
311 733
312 340
312 344
312 361
312 418
312 472
312 513
312 552
312 553
312 554
312 586
312 593
312 601
312 627
312 638
312 640
312 643
312 657
312 666
312 683
312 710
312 727
312 733
312 740
313 373
313 379
313 401
313 449
313 458
313 499
313 513
313 516
313 520
313 526
313 543
313 548
313 554
313 572
313 578
313 637
313 640
313 641
313 687
313 692
313 719
313 735
313 749
314 316
314 344
314 350
314 369
314 372
314 392
314 441
314 496
314 514
314 532
314 590
314 600
314 627
314 640
314 645
314 676
314 686
314 689
314 691
314 699
314 730
314 749
315 367
315 371
315 380
315 387
315 446
315 457
315 478
315 530
315 551
315 557
315 580
315 598
315 601
315 618
315 627
315 629
315 635
315 683
315 695
315 704
315 748
316 320
316 364
316 412
316 450
316 471
316 472
316 473
316 489
316 516
316 529
316 532
316 596
316 599
316 614
316 622
316 630
316 643
316 663
316 687
316 708
316 715
317 334
317 377
317 404
317 455
317 456
317 472
317 491
317 515
317 536
317 543
317 549
317 550
317 561
317 589
317 595
317 598
317 614
317 643
317 648
317 667
317 678
317 690
317 706
317 727
318 330
318 378
318 394
318 488
318 490
318 493
318 509
318 514
318 553
318 600
318 632
318 648
318 654
318 662
318 680
318 715
318 737
319 362
319 396
319 438
319 456
319 469
319 475
319 506
319 528
319 530
319 540
319 548
319 573
319 589
319 606
319 634
319 657
319 711
319 738
319 740
319 743
320 350
320 413
320 463
320 501
320 543
320 633
320 639
320 649
320 709
320 740
321 337
321 362
321 396
321 422
321 437
321 441
321 482
321 515
321 545
321 581
321 598
321 607
321 613
321 633
321 640
321 664
321 674
321 704
321 707
321 712
321 742
322 335
322 338
322 356
322 360
322 379
322 405
322 410
322 424
322 437
322 490
322 501
322 505
322 515
322 518
322 538
322 599
322 605
322 618
322 663
322 667
322 673
322 677
322 681
322 703
323 337
323 429
323 446
323 472
323 488
323 494
323 496
323 500
323 504
323 549
323 576
323 597
323 635
323 652
323 675
323 708
323 713
323 719
323 732
324 383
324 389
324 403
324 431
324 440
324 450
324 455
324 473
324 514
324 535
324 574
324 583
324 621
324 622
324 639
324 669
324 716
324 720
325 350
325 369
325 409
325 423
325 435
325 453
325 464
325 467
325 471
325 474
325 483
325 507
325 513
325 536
325 573
325 574
325 577
325 589
325 593
325 602
325 616
325 628
325 634
325 651
325 697
325 739
326 332
326 338
326 361
326 370
326 397
326 417
326 430
326 443
326 452
326 472
326 484
326 508
326 512
326 517
326 553
326 564
326 577
326 584
326 592
326 607
326 610
326 617
326 619
326 629
326 671
326 685
326 700
326 701
326 706
326 711
326 720
326 736
326 748
327 329
327 333
327 347
327 361
327 392
327 416
327 424
327 425
327 446
327 468
327 538
327 560
327 573
327 575
327 673
327 696
327 718
327 731
327 738
328 356
328 373
328 393
328 455
328 471
328 490
328 511
328 520
328 528
328 529
328 579
328 613
328 618
328 625
328 626
328 651
328 671
328 693
328 711
328 712
328 719
328 724
328 737
328 741
329 336
329 387
329 401
329 406
329 473
329 528
329 530
329 568
329 577
329 583
329 610
329 620
329 632
329 637
329 668
329 672
329 684
329 708
329 721
329 745
330 339
330 357
330 366
330 402
330 409
330 422
330 446
330 449
330 463
330 605
330 641
330 688
330 699
330 709
330 716
330 733
330 734
330 746
331 340
331 375
331 409
331 423
331 427
331 460
331 461
331 468
331 525
331 549
331 577
331 578
331 582
331 594
331 610
331 613
331 646
331 663
331 703
331 709
331 738
331 749
332 336
332 339
332 374
332 383
332 397
332 400
332 411
332 427
332 439
332 462
332 519
332 520
332 568
332 598
332 651
332 657
332 677
332 700
332 713
333 342
333 347
333 361
333 368
333 402
333 407
333 416
333 422
333 435
333 508
333 525
333 527
333 536
333 546
333 596
333 607
333 651
333 657
333 747
334 342
334 353
334 354
334 364
334 372
334 426
334 430
334 435
334 436
334 437
334 472
334 488
334 499
334 508
334 511
334 546
334 571
334 576
334 612
334 634
334 637
334 698
334 737
335 371
335 375
335 441
335 457
335 462
335 487
335 560
335 582
335 602
335 605
335 615
335 631
335 640
335 658
335 706
335 715
335 725
335 729
335 737
335 741
336 373
336 375
336 386
336 396
336 432
336 434
336 440
336 460
336 462
336 474
336 483
336 515
336 540
336 639
336 653
336 713
336 732
336 748
337 372
337 378
337 384
337 405
337 425
337 454
337 511
337 512
337 515
337 533
337 608
337 616
337 626
337 645
337 663
337 713
337 728
337 730
337 743
338 348
338 364
338 381
338 395
338 409
338 483
338 495
338 508
338 521
338 522
338 538
338 548
338 556
338 583
338 604
338 634
338 638
338 645
338 702
338 735
338 746
339 343
339 345
339 360
339 382
339 419
339 436
339 463
339 475
339 530
339 544
339 551
339 573
339 606
339 634
339 650
339 656
339 669
339 690
339 700
340 344
340 385
340 397
340 482
340 483
340 515
340 541
340 575
340 578
340 589
340 608
340 634
340 637
340 652
340 655
340 670
340 672
340 682
340 703
340 705
341 346
341 375
341 377
341 410
341 411
341 432
341 446
341 475
341 507
341 558
341 577
341 584
341 599
341 603
341 619
341 624
341 669
341 673
341 684
341 699
341 731
341 736
341 741
341 745
342 404
342 446
342 479
342 524
342 586
342 624
342 629
342 634
342 668
342 697
343 352
343 401
343 402
343 427
343 428
343 452
343 477
343 490
343 494
343 547
343 622
343 629
343 639
343 653
343 656
343 669
343 678
343 688
343 725
344 355
344 375
344 423
344 475
344 480
344 558
344 562
344 573
344 618
344 626
344 649
344 662
344 674
344 695
344 701
344 703
344 738
345 346
345 354
345 358
345 402
345 408
345 439
345 441
345 456
345 459
345 460
345 465
345 466
345 489
345 557
345 563
345 565
345 577
345 592
345 622
345 635
345 636
345 676
345 706
346 360
346 363
346 368
346 379
346 430
346 438
346 472
346 482
346 490
346 491
346 508
346 510
346 515
346 521
346 538
346 557
346 577
346 668
346 682
346 720
347 365
347 374
347 421
347 424
347 465
347 468
347 475
347 481
347 519
347 523
347 524
347 551
347 579
347 629
347 635
347 679
347 685
347 706
347 726
347 737
348 357
348 358
348 369
348 374
348 411
348 425
348 440
348 470
348 474
348 487
348 494
348 541
348 548
348 653
348 681
348 693
348 700
348 714
348 725
348 729
348 734
348 741
349 351
349 390
349 427
349 439
349 453
349 455
349 459
349 475
349 481
349 524
349 566
349 567
349 605
349 631
349 649
349 670
349 675
349 680
349 695
349 698
349 707
349 714
349 719
349 725
349 737
350 357
350 359
350 381
350 384
350 395
350 456
350 509
350 511
350 538
350 541
350 634
350 658
350 687
350 691
350 707
350 746
351 353
351 370
351 374
351 402
351 419
351 434
351 436
351 438
351 439
351 455
351 463
351 464
351 472
351 503
351 516
351 565
351 586
351 599
351 615
351 637
351 696
351 701
351 711
352 391
352 394
352 408
352 440
352 473
352 494
352 529
352 569
352 574
352 617
352 620
352 633
352 639
352 655
352 707
352 710
352 725
352 730
352 740
352 741
353 422
353 475
353 493
353 518
353 520
353 533
353 569
353 573
353 575
353 619
353 621
353 626
353 642
353 680
353 684
353 696
353 702
353 716
353 732
354 365
354 368
354 407
354 423
354 439
354 467
354 473
354 478
354 483
354 500
354 501
354 507
354 509
354 518
354 525
354 550
354 635
354 673
354 718
354 719
354 744
355 374
355 441
355 451
355 513
355 515
355 563
355 565
355 572
355 577
355 588
355 596
355 610
355 628
355 649
355 651
355 693
355 694
355 706
355 707
355 712
355 735
355 745
356 360
356 362
356 364
356 377
356 386
356 412
356 435
356 440
356 460
356 481
356 499
356 502
356 558
356 611
356 617
356 633
356 650
356 658
356 680
356 699
356 706
356 738
357 421
357 424
357 479
357 484
357 486
357 524
357 526
357 548
357 567
357 570
357 574
357 584
357 594
357 651
357 660
357 663
357 675
357 698
357 725
357 732
358 389
358 418
358 421
358 429
358 480
358 500
358 506
358 522
358 544
358 589
358 606
358 624
358 639
358 640
358 643
358 646
358 649
358 678
358 686
358 711
359 364
359 391
359 399
359 408
359 413
359 416
359 452
359 459
359 481
359 486
359 547
359 554
359 614
359 631
359 646
359 652
359 683
359 715
360 375
360 391
360 414
360 420
360 423
360 430
360 437
360 450
360 454
360 468
360 474
360 476
360 495
360 506
360 511
360 512
360 586
360 589
360 594
360 651
360 657
360 666
360 668
360 670
360 682
361 378
361 387
361 398
361 452
361 465
361 495
361 496
361 498
361 510
361 602
361 616
361 645
361 659
361 661
361 676
361 704
361 721
362 364
362 366
362 412
362 429
362 442
362 445
362 449
362 465
362 499
362 538
362 582
362 587
362 619
362 658
362 662
362 677
362 701
362 706
362 708
363 364
363 383
363 434
363 441
363 456
363 459
363 486
363 514
363 518
363 578
363 605
363 615
363 636
363 652
363 661
363 668
363 681
363 688
363 692
363 717
364 390
364 394
364 421
364 426
364 438
364 481
364 489
364 499
364 548
364 553
364 555
364 567
364 585
364 592
364 620
364 623
364 665
364 700
364 702
364 716
364 722
365 389
365 393
365 416
365 446
365 449
365 450
365 463
365 467
365 528
365 547
365 548
365 550
365 554
365 560
365 598
365 604
365 610
365 635
365 642
365 649
365 664
365 682
365 698
365 726
366 395
366 398
366 427
366 451
366 466
366 493
366 509
366 544
366 560
366 612
366 706
366 730
366 740
367 385
367 397
367 413
367 422
367 473
367 475
367 481
367 497
367 519
367 572
367 610
367 655
367 672
367 677
367 698
367 708
367 723
367 730
367 741
368 394
368 405
368 420
368 448
368 493
368 524
368 525
368 540
368 559
368 572
368 578
368 609
368 637
368 652
368 685
368 713
369 373
369 406
369 519
369 546
369 554
369 563
369 566
369 580
369 583
369 593
369 648
369 680
369 692
369 693
369 728
369 743
370 387
370 388
370 409
370 411
370 413
370 436
370 444
370 467
370 475
370 494
370 533
370 570
370 589
370 591
370 605
370 626
370 633
370 665
370 669
370 670
370 672
370 686
371 383
371 404
371 415
371 422
371 445
371 446
371 493
371 520
371 536
371 582
371 624
371 657
371 668
371 672
371 680
371 689
371 695
371 701
371 720
372 445
372 476
372 488
372 527
372 544
372 550
372 558
372 594
372 617
372 620
372 649
372 665
372 673
372 723
372 732
372 742
373 407
373 431
373 544
373 551
373 579
373 596
373 620
373 639
373 647
373 668
373 681
373 692
373 731
374 388
374 442
374 446
374 452
374 459
374 461
374 493
374 519
374 557
374 595
374 624
374 639
374 647
374 675
374 684
374 742
374 745
375 416
375 426
375 437
375 470
375 498
375 532
375 555
375 562
375 576
375 584
375 601
375 608
375 609
375 612
375 653
375 684
375 690
375 744
375 748
376 398
376 409
376 431
376 461
376 469
376 472
376 518
376 556
376 564
376 603
376 609
376 618
376 648
376 669
376 708
376 709
377 382
377 385
377 438
377 459
377 493
377 525
377 553
377 572
377 573
377 579
377 591
377 609
377 630
377 634
377 708
377 715
377 716
377 739
378 385
378 391
378 444
378 456
378 498
378 513
378 538
378 564
378 622
378 626
378 629
378 631
378 649
378 667
378 677
378 680
379 420
379 426
379 454
379 474
379 501
379 509
379 512
379 523
379 530
379 551
379 576
379 586
379 610
379 621
379 639
379 659
379 661
379 701
379 709
379 711
379 719
379 734
380 413
380 439
380 449
380 452
380 462
380 484
380 487
380 489
380 511
380 540
380 541
380 570
380 589
380 593
380 641
380 665
380 689
380 738
381 399
381 412
381 430
381 479
381 490
381 501
381 519
381 529
381 545
381 552
381 576
381 601
381 627
381 643
381 651
381 708
381 712
381 727
382 390
382 427
382 459
382 475
382 499
382 522
382 648
382 681
382 692
382 694
382 696
382 708
382 715
383 386
383 397
383 433
383 446
383 457
383 483
383 493
383 499
383 513
383 514
383 515
383 544
383 546
383 560
383 576
383 581
383 645
383 665
383 666
383 724
383 725
384 428
384 432
384 438
384 447
384 455
384 505
384 517
384 533
384 541
384 566
384 569
384 585
384 606
384 659
384 671
384 673
384 686
384 709
384 735
384 737
385 425
385 428
385 437
385 441
385 450
385 451
385 505
385 513
385 520
385 543
385 545
385 568
385 607
385 612
385 666
385 697
385 726
386 387
386 421
386 438
386 499
386 519
386 544
386 568
386 604
386 681
386 683
386 714
387 397
387 400
387 403
387 406
387 417
387 434
387 447
387 451
387 465
387 499
387 505
387 512
387 534
387 537
387 562
387 581
387 605
387 614
387 655
387 685
387 729
388 390
388 469
388 478
388 492
388 509
388 517
388 519
388 526
388 528
388 529
388 602
388 605
388 646
388 665
388 669
388 721
388 736
388 745
388 749
389 408
389 445
389 454
389 473
389 494
389 512
389 518
389 555
389 586
389 661
389 687
389 728
389 746
390 397
390 420
390 424
390 425
390 428
390 466
390 474
390 479
390 510
390 532
390 547
390 580
390 587
390 622
390 645
390 648
390 674
390 681
390 717
390 733
391 423
391 473
391 511
391 526
391 527
391 567
391 585
391 598
391 602
391 631
391 682
391 734
392 398
392 413
392 424
392 441
392 456
392 467
392 490
392 508
392 518
392 521
392 572
392 580
392 615
392 628
392 672
392 686
392 739
393 458
393 482
393 542
393 559
393 565
393 691
393 715
393 718
394 405
394 446
394 468
394 587
394 622
394 706
394 749
395 397
395 409
395 414
395 434
395 447
395 464
395 466
395 482
395 487
395 501
395 502
395 505
395 519
395 632
395 637
395 651
395 655
395 664
395 666
395 688
395 708
395 709
395 729
395 735
396 403
396 405
396 425
396 443
396 478
396 504
396 559
396 566
396 572
396 593
396 631
396 663
396 681
396 686
396 692
396 728
396 733
397 406
397 410
397 411
397 417
397 418
397 429
397 430
397 457
397 462
397 467
397 492
397 501
397 512
397 528
397 530
397 556
397 567
397 598
397 630
397 658
397 683
397 714
397 740
398 440
398 455
398 505
398 532
398 533
398 539
398 561
398 566
398 610
398 626
398 656
398 697
398 716
399 407
399 476
399 488
399 513
399 533
399 547
399 551
399 584
399 592
399 630
399 634
399 651
399 658
399 662
399 668
399 705
399 730
399 745
399 746
400 419
400 420
400 436
400 449
400 466
400 487
400 491
400 518
400 529
400 541
400 559
400 568
400 589
400 595
400 619
400 660
400 701
400 717
400 740
401 414
401 415
401 455
401 460
401 468
401 494
401 536
401 542
401 549
401 551
401 571
401 647
402 408
402 444
402 451
402 471
402 473
402 487
402 518
402 521
402 624
402 640
402 648
402 650
402 665
402 680
402 685
402 734
403 417
403 418
403 451
403 454
403 465
403 490
403 505
403 529
403 562
403 593
403 613
403 643
403 698
403 701
403 704
403 723
403 724
404 441
404 452
404 454
404 471
404 512
404 541
404 553
404 555
404 600
404 617
404 626
404 627
404 649
404 652
404 657
404 671
404 712
404 713
405 428
405 464
405 466
405 469
405 537
405 639
405 664
405 669
405 680
405 684
405 693
405 717
405 741
406 422
406 484
406 489
406 513
406 522
406 526
406 529
406 533
406 553
406 564
406 574
406 582
406 630
406 640
406 671
406 678
406 708
406 714
407 417
407 418
407 448
407 482
407 492
407 505
407 548
407 552
407 570
407 591
407 604
407 618
407 653
407 674
407 711
407 722
407 736
407 748
408 449
408 480
408 509
408 513
408 514
408 559
408 580
408 590
408 604
408 649
408 653
408 672
408 676
408 720
408 723
409 456
409 474
409 477
409 485
409 516
409 523
409 600
409 619
409 647
409 678
409 699
409 709
409 732
410 441
410 514
410 515
410 534
410 536
410 559
410 560
410 562
410 571
410 572
410 577
410 592
410 603
410 610
410 638
410 643
410 653
410 675
410 678
410 681
410 682
410 684
410 691
411 422
411 425
411 429
411 443
411 460
411 571
411 584
411 592
411 601
411 611
411 621
411 622
411 635
411 637
411 649
411 656
411 669
411 671
411 680
411 690
411 691
412 418
412 428
412 445
412 470
412 488
412 531
412 557
412 588
412 643
412 664
412 683
412 702
412 703
412 715
412 723
413 419
413 428
413 438
413 442
413 500
413 526
413 527
413 570
413 611
413 641
413 685
413 704
413 713
413 715
413 720
413 725
414 419
414 446
414 450
414 478
414 480
414 491
414 516
414 519
414 578
414 603
414 643
414 646
414 673
414 686
414 706
414 712
415 418
415 424
415 436
415 491
415 557
415 560
415 575
415 581
415 600
415 609
415 635
415 688
415 691
415 721
415 722
415 730
416 420
416 433
416 461
416 464
416 507
416 531
416 571
416 574
416 593
416 651
416 654
416 657
416 658
416 665
416 670
416 714
416 720
416 746
417 444
417 458
417 511
417 520
417 536
417 550
417 584
417 599
417 610
417 662
417 670
417 673
417 681
417 730
417 742
418 439
418 455
418 458
418 473
418 480
418 489
418 492
418 581
418 624
418 629
418 645
418 649
418 651
418 695
418 712
418 716
419 434
419 460
419 486
419 564
419 586
419 587
419 597
419 611
419 616
419 672
419 705
419 716
420 442
420 501
420 514
420 517
420 519
420 534
420 562
420 627
420 686
420 703
420 723
420 744
421 427
421 454
421 468
421 528
421 539
421 552
421 588
421 613
421 621
421 627
421 630
421 656
421 692
421 696
421 731
421 739
421 749
422 429
422 445
422 465
422 473
422 512
422 541
422 568
422 578
422 579
422 618
422 636
422 637
422 641
422 688
422 699
422 719
422 736
422 746
423 434
423 494
423 499
423 508
423 528
423 566
423 600
423 716
424 428
424 434
424 446
424 448
424 471
424 493
424 501
424 569
424 586
424 600
424 620
424 624
424 671
424 675
424 681
424 683
424 689
424 708
425 433
425 456
425 511
425 570
425 606
425 626
425 646
425 681
425 729
425 743
426 453
426 471
426 493
426 495
426 506
426 522
426 577
426 606
426 618
426 632
426 667
426 690
426 725
426 737
426 748
427 462
427 531
427 533
427 600
427 680
427 709
427 748
428 436
428 457
428 471
428 498
428 509
428 527
428 597
428 598
428 610
428 619
428 639
428 665
428 682
428 692
428 718
428 722
428 725
428 745
429 461
429 463
429 505
429 519
429 535
429 536
429 567
429 579
429 580
429 584
429 591
429 629
429 635
429 638
429 652
429 655
429 675
429 679
429 692
429 726
429 735
430 479
430 514
430 518
430 527
430 533
430 580
430 627
430 681
430 690
430 706
430 709
430 712
430 719
430 728
430 745
431 444
431 468
431 514
431 515
431 525
431 535
431 564
431 568
431 583
431 631
431 633
431 686
431 694
431 717
431 735
432 451
432 456
432 457
432 474
432 486
432 493
432 510
432 520
432 538
432 558
432 560
432 564
432 575
432 578
432 592
432 602
432 644
432 694
432 733
432 746
433 447
433 475
433 490
433 569
433 642
433 651
433 653
433 692
433 710
433 719
433 729
433 735
434 443
434 456
434 492
434 512
434 573
434 602
434 611
434 612
434 631
434 634
434 669
435 485
435 495
435 497
435 503
435 512
435 548
435 615
435 660
435 668
435 671
435 674
435 713
435 727
436 448
436 454
436 455
436 473
436 477
436 479
436 481
436 491
436 507
436 516
436 545
436 591
436 630
436 652
436 657
436 685
437 446
437 451
437 465
437 466
437 493
437 498
437 523
437 570
437 579
437 607
437 615
437 665
437 670
437 705
437 717
437 722
437 739
438 450
438 466
438 475
438 492
438 538
438 548
438 549
438 561
438 572
438 587
438 596
438 605
438 663
438 665
438 714
438 727
439 445
439 448
439 449
439 455
439 516
439 555
439 600
439 609
439 625
439 635
439 705
439 726
440 479
440 483
440 494
440 521
440 554
440 592
440 593
440 606
440 622
440 638
440 652
440 707
440 729
441 445
441 449
441 450
441 495
441 504
441 533
441 543
441 557
441 631
441 636
441 682
441 699
441 733
441 740
442 560
442 593
442 705
442 713
442 716
442 719
442 727
442 744
443 479
443 496
443 522
443 543
443 556
443 570
443 585
443 591
443 623
443 638
443 677
443 681
443 707
443 711
443 724
444 473
444 475
444 499
444 513
444 531
444 589
444 597
444 610
444 614
444 634
444 645
444 658
444 668
444 689
444 710
444 713
444 734
444 743
445 450
445 467
445 479
445 493
445 499
445 521
445 545
445 571
445 588
445 601
445 685
445 707
445 715
445 749
446 454
446 467
446 482
446 494
446 516
446 545
446 549
446 553
446 582
446 604
446 647
446 670
447 465
447 469
447 580
447 597
447 598
447 611
447 612
447 620
447 650
447 674
447 682
447 701
447 713
447 717
447 732
448 480
448 499
448 515
448 529
448 541
448 543
448 545
448 578
448 618
448 625
448 637
448 641
448 651
448 664
448 710
448 712
448 748
449 452
449 477
449 480
449 488
449 510
449 543
449 555
449 558
449 561
449 580
449 600
449 603
449 609
449 618
449 623
449 624
449 652
449 654
449 665
449 685
449 699
449 708
449 710
449 719
449 720
450 466
450 487
450 504
450 515
450 521
450 527
450 531
450 591
450 597
450 614
450 621
450 650
450 652
450 678
450 690
450 705
450 706
450 714
450 735
451 503
451 508
451 556
451 557
451 564
451 582
451 596
451 644
451 648
451 664
451 681
451 708
451 725
451 737
451 743
452 486
452 504
452 524
452 592
452 638
452 654
452 664
452 676
452 689
452 726
452 744
452 748
452 749
453 459
453 461
453 481
453 490
453 492
453 498
453 510
453 556
453 564
453 606
453 608
453 618
453 643
453 648
453 656
453 662
453 672
453 715
453 725
454 479
454 482
454 504
454 514
454 545
454 551
454 588
454 640
454 641
454 644
454 665
454 667
454 679
454 686
454 714
454 747
454 748
455 459
455 468
455 469
455 494
455 512
455 521
455 527
455 533
455 554
455 558
455 576
455 581
455 620
455 629
455 640
455 646
455 683
455 713
455 717
455 725
456 476
456 532
456 545
456 559
456 563
456 577
456 591
456 603
456 629
456 632
456 664
456 710
456 732
457 569
457 574
457 576
457 582
457 587
457 593
457 636
457 705
457 709
457 724
458 463
458 490
458 529
458 536
458 551
458 596
458 598
458 609
458 670
458 698
458 729
458 741
458 742
459 493
459 508
459 522
459 527
459 543
459 551
459 553
459 568
459 574
459 614
459 628
459 645
459 707
459 709
459 735
460 469
460 477
460 497
460 518
460 525
460 546
460 555
460 590
460 605
460 623
460 640
460 644
460 676
460 694
460 730
461 484
461 487
461 616
461 643
461 661
461 670
461 734
462 468
462 492
462 493
462 506
462 549
462 552
462 563
462 681
462 706
462 707
462 732
462 737
463 472
463 479
463 481
463 502
463 553
463 596
463 650
463 695
463 707
463 718
463 726
463 736
464 479
464 488
464 512
464 521
464 544
464 572
464 581
464 673
464 687
464 696
464 704
464 706
464 708
464 731
464 739
464 740
464 741
465 500
465 503
465 547
465 570
465 577
465 666
465 675
465 681
465 699
465 703
465 706
465 721
465 749
466 521
466 553
466 593
466 603
466 611
466 646
466 650
466 693
466 710
466 726
466 728
466 729
467 474
467 487
467 489
467 535
467 558
467 578
467 643
467 668
467 690
467 692
467 709
468 485
468 493
468 518
468 562
468 563
468 570
468 608
468 654
468 672
468 689
468 695
468 732
469 481
469 509
469 517
469 537
469 554
469 559
469 631
469 667
469 672
469 700
469 733
470 524
470 526
470 541
470 568
470 600
470 621
470 641
470 649
470 670
470 695
470 727
470 733
470 748
470 749
471 503
471 516
471 568
471 582
471 593
471 631
471 644
471 670
471 684
472 488
472 510
472 544
472 552
472 567
472 579
472 591
472 595
472 598
472 615
472 625
472 630
472 659
472 666
472 685
472 686
472 701
472 710
472 713
473 481
473 495
473 523
473 525
473 529
473 542
473 548
473 562
473 590
473 613
473 621
473 630
473 673
473 680
473 705
473 720
473 739
473 744
473 746
474 539
474 553
474 587
474 602
474 636
474 658
474 683
474 686
474 724
475 538
475 560
475 571
475 574
475 583
475 647
475 656
475 688
475 716
475 718
475 723
475 727
476 481
476 488
476 512
476 542
476 568
476 602
476 651
476 697
476 724
477 478
477 515
477 598
477 607
477 614
477 639
477 696
478 483
478 512
478 536
478 582
478 600
478 626
478 731
478 747
479 484
479 520
479 536
479 585
479 587
479 591
479 620
479 627
479 630
479 638
479 640
479 674
479 680
479 692
479 697
479 701
479 703
479 705
479 743
480 503
480 536
480 542
480 599
480 600
480 608
480 631
480 647
480 685
480 703
480 711
480 743
481 499
481 504
481 526
481 555
481 557
481 563
481 566
481 568
481 572
481 581
481 622
481 699
481 716
481 724
481 746
482 499
482 531
482 561
482 588
482 591
482 614
482 628
482 635
482 672
482 694
482 722
482 724
482 729
482 745
483 485
483 497
483 542
483 548
483 554
483 577
483 597
483 610
483 619
483 635
483 674
483 697
483 723
483 727
484 486
484 501
484 512
484 562
484 591
484 628
484 646
484 648
484 679
484 717
484 729
485 499
485 519
485 520
485 529
485 597
485 629
485 637
485 648
485 736
485 747
486 497
486 508
486 521
486 535
486 559
486 565
486 570
486 574
486 577
486 635
486 647
486 677
486 713
486 737
487 491
487 560
487 572
487 595
487 605
487 611
487 647
487 686
487 733
488 489
488 493
488 523
488 539
488 541
488 561
488 572
488 598
488 634
488 655
488 670
488 673
488 682
488 686
488 701
488 738
488 745
489 517
489 525
489 550
489 573
489 586
489 602
489 623
489 626
489 634
489 696
489 705
489 724
489 734
489 746
489 749
490 510
490 526
490 539
490 571
490 580
490 591
490 602
490 604
490 625
490 671
490 693
490 715
490 717
490 746
491 497
491 547
491 566
491 596
491 614
491 631
491 633
491 685
491 697
491 718
491 720
491 723
492 516
492 556
492 569
492 572
492 574
492 611
492 653
492 655
492 671
492 716
492 723
492 737
493 550
493 563
493 564
493 600
493 688
494 497
494 507
494 519
494 535
494 587
494 590
494 596
494 612
494 636
494 644
494 658
494 670
494 698
494 700
494 712
494 713
494 721
495 499
495 510
495 530
495 531
495 532
495 566
495 567
495 585
495 628
495 638
495 643
495 645
495 657
495 689
495 698
495 703
495 744
496 529
496 572
496 595
496 605
496 606
496 621
496 672
496 706
496 710
496 724
496 735
496 744
497 522
497 582
497 588
497 591
497 614
497 615
497 641
497 717
497 720
498 513
498 516
498 518
498 532
498 536
498 546
498 568
498 579
498 618
498 632
498 636
498 652
498 720
499 511
499 551
499 585
499 627
499 629
499 632
499 649
499 650
500 559
500 570
500 577
500 595
500 619
500 622
500 675
500 726
500 727
500 738
501 509
501 530
501 562
501 574
501 577
501 609
501 612
501 614
501 618
501 637
501 648
501 652
501 658
501 668
501 703
501 713
501 716
502 538
502 565
502 577
502 578
502 584
502 597
502 645
502 648
502 654
502 699
502 727
503 506
503 522
503 541
503 550
503 620
503 625
503 654
503 681
503 691
503 701
503 711
503 715
504 526
504 546
504 581
504 597
504 619
504 638
504 676
504 704
504 706
504 710
505 524
505 529
505 536
505 595
505 607
505 646
505 654
505 673
505 675
505 706
505 714
505 734
506 512
506 516
506 524
506 568
506 580
506 585
506 591
506 601
506 643
506 645
506 664
506 700
507 513
507 537
507 541
507 588
507 616
507 676
508 601
508 653
508 658
508 695
508 702
508 708
508 716
508 717
508 740
509 511
509 563
509 569
509 573
509 598
509 603
509 619
509 634
509 636
509 682
509 711
509 726
510 526
510 532
510 533
510 542
510 544
510 545
510 559
510 580
510 628
510 649
510 663
510 678
511 566
511 582
511 597
511 598
511 657
511 666
511 667
511 673
511 709
511 730
511 733
511 736
512 530
512 540
512 565
512 568
512 574
512 638
512 687
512 706
512 728
512 733
513 556
513 571
513 574
513 593
513 619
513 646
513 652
513 664
514 541
514 544
514 574
514 582
514 593
514 625
514 692
514 699
514 701
514 744
515 538
515 546
515 552
515 556
515 571
515 606
515 624
515 637
515 671
515 689
515 691
515 727
516 539
516 563
516 566
516 588
516 625
516 646
516 654
516 674
516 683
517 537
517 591
517 622
517 626
517 627
517 630
517 684
517 693
517 710
518 547
518 587
518 592
518 601
518 630
518 642
518 652
518 671
518 680
518 706
518 719
518 731
518 737
518 743
518 749
519 567
519 579
519 608
519 611
519 639
519 647
519 664
519 713
519 729
519 749
520 544
520 560
520 561
520 566
520 636
520 639
520 668
520 676
520 684
521 562
521 571
521 574
521 603
521 604
521 613
521 632
521 643
521 652
521 694
521 696
521 720
522 542
522 579
522 647
522 669
522 678
522 683
522 703
522 715
522 729
522 736
522 739
523 547
523 561
523 565
523 584
523 586
523 607
523 662
523 664
523 677
523 737
524 561
524 672
524 684
524 693
524 705
524 735
524 740
525 526
525 559
525 604
525 608
525 625
525 667
525 686
525 688
525 721
525 726
525 731
525 738
526 543
526 560
526 572
526 590
526 616
526 626
526 638
526 652
526 665
526 669
526 676
526 682
526 690
526 704
526 707
526 713
527 551
527 557
527 584
527 585
527 609
527 624
527 668
527 690
527 730
528 543
528 552
528 587
528 594
528 602
528 638
528 641
528 651
528 657
528 658
528 683
528 696
528 709
528 716
529 547
529 558
529 579
529 585
529 595
529 616
529 650
529 657
529 661
529 662
529 672
529 673
529 698
529 699
529 738
530 584
530 631
530 649
530 667
530 710
530 728
531 591
531 620
531 630
531 634
531 637
531 647
531 680
531 712
531 713
531 721
531 738
532 535
532 579
532 591
532 687
532 719
532 720
532 722
532 724
532 741
532 748
533 541
533 548
533 555
533 649
533 667
533 674
533 677
533 696
533 698
533 703
533 706
533 746
534 537
534 558
534 578
534 609
534 614
534 669
534 687
534 690
534 744
535 537
535 541
535 545
535 559
535 561
535 593
535 595
535 602
535 631
535 658
535 739
536 587
536 597
536 611
536 636
536 663
536 684
536 693
536 736
536 739
537 573
537 643
537 652
537 663
537 690
537 696
537 705
538 565
538 566
538 572
538 578
538 581
538 598
538 633
538 648
538 719
538 721
538 743
539 582
539 612
539 675
540 554
540 556
540 622
540 629
540 646
540 657
540 684
540 748
541 553
541 558
541 560
541 586
541 613
541 617
541 622
541 628
541 631
541 646
541 652
541 672
541 674
542 557
542 610
542 613
542 625
542 631
542 662
542 687
542 697
542 703
542 710
542 725
543 550
543 614
543 626
543 631
543 645
543 667
543 722
543 738
544 546
544 549
544 557
544 586
544 593
544 632
544 637
544 639
544 684
544 711
544 712
545 596
545 600
545 620
545 628
545 635
545 639
545 653
545 685
545 738
546 571
546 629
546 650
546 677
546 678
546 689
546 702
547 554
547 570
547 576
547 600
547 609
547 643
547 657
547 659
547 715
548 554
548 562
548 578
548 597
548 637
548 647
548 687
548 691
548 749
549 550
549 555
549 559
549 571
549 625
549 686
549 704
549 706
549 708
549 723
549 736
549 743
550 565
550 578
550 582
550 636
550 642
550 651
550 667
550 669
550 672
550 696
550 700
550 719
550 739
550 740
551 569
551 576
551 592
551 596
551 700
551 717
551 718
551 720
551 725
551 743
552 587
552 608
552 631
552 707
552 710
552 718
552 723
552 725
552 732
552 744
552 748
553 560
553 636
553 655
553 662
553 683
553 684
553 706
553 737
554 560
554 592
554 627
554 660
554 672
554 691
554 700
554 707
554 708
554 746
555 598
555 636
555 637
555 670
555 694
555 704
555 710
555 721
555 731
555 749
556 581
556 618
556 623
556 667
556 674
556 720
556 721
556 741
557 573
557 607
557 624
557 629
557 659
557 662
557 668
557 680
558 567
558 581
558 600
558 610
558 632
558 635
558 637
558 656
558 661
558 698
558 701
558 706
559 586
559 602
559 634
559 695
559 701
560 579
560 589
560 590
560 623
560 630
560 660
560 684
560 708
560 740
561 569
561 586
561 626
561 635
561 639
561 642
561 696
561 697
561 698
561 702
561 705
561 714
561 720
561 743
562 567
562 577
562 621
562 675
562 682
562 687
562 697
562 738
563 566
563 605
563 607
563 635
563 637
563 655
563 676
563 688
563 702
563 717
563 740
564 576
564 578
564 607
564 628
564 644
564 685
564 689
564 698
564 706
564 709
565 627
565 638
565 648
565 653
565 655
565 689
565 692
565 709
565 711
565 718
565 729
565 740
565 745
566 577
566 597
566 622
566 631
566 635
566 650
566 652
566 653
566 666
566 674
566 721
567 597
567 599
567 672
567 675
567 698
567 722
568 609
568 620
568 625
568 715
568 738
569 642
569 644
569 650
569 705
569 743
570 572
570 588
570 590
570 629
570 678
570 695
570 702
570 717
570 729
570 745
571 634
571 643
571 654
571 656
571 676
571 706
571 720
571 730
572 588
572 593
572 626
572 654
572 670
572 672
572 673
572 699
572 706
572 707
572 738
573 603
573 608
573 616
573 668
573 670
573 722
573 748
574 618
574 621
574 624
574 644
574 685
574 696
574 729
574 744
575 624
575 662
575 689
575 704
575 719
575 722
576 593
576 603
576 628
576 645
576 655
576 673
576 675
576 677
576 699
576 744
577 622
577 646
577 650
577 672
577 676
577 680
577 685
577 734
578 605
578 625
578 626
578 644
578 688
578 703
579 624
579 626
579 629
579 652
579 662
579 684
580 590
580 593
580 597
580 606
580 621
580 636
580 643
580 666
580 669
580 671
580 686
580 699
580 715
580 730
580 735
581 589
581 626
581 636
581 669
581 688
581 702
581 718
581 725
582 646
582 668
582 671
582 749
583 658
583 676
583 690
583 691
583 733
584 605
584 607
584 611
584 639
584 670
584 675
584 683
584 686
585 625
585 636
585 685
585 687
585 695
585 703
586 595
586 617
586 618
586 638
586 639
586 645
586 657
586 718
586 726
586 741
586 743
587 592
587 615
587 623
587 667
587 671
587 714
587 739
588 688
588 691
588 714
588 718
588 721
588 723
588 742
589 632
589 635
589 639
589 643
589 655
589 658
589 707
589 710
590 621
590 627
590 641
590 680
591 603
591 689
591 690
591 701
591 748
592 725
593 594
593 595
593 596
593 601
593 624
593 652
593 666
593 689
594 610
594 618
594 654
594 671
594 687
594 697
594 699
594 703
594 728
595 637
595 640
595 643
595 645
595 659
595 689
595 701
595 708
595 719
596 602
596 606
596 650
596 683
596 706
596 712
596 725
596 743
597 627
597 633
597 645
597 655
597 673
597 676
597 678
597 686
597 735
598 669
598 697
598 705
598 712
598 734
598 743
598 748
599 671
599 678
599 692
599 701
599 744
600 602
600 606
600 621
600 630
600 645
600 658
600 661
600 673
600 678
600 682
600 708
600 733
601 610
601 636
601 660
601 703
601 722
602 623
602 627
602 644
602 656
602 704
602 705
602 712
602 735
602 749
603 615
603 624
603 628
603 633
603 644
603 663
603 697
603 722
603 740
604 693
604 694
604 709
604 732
604 737
605 632
605 643
605 666
605 679
605 687
605 726
605 740
606 612
606 640
606 656
606 658
606 675
606 681
606 700
606 706
607 674
607 685
607 712
608 627
608 673
608 695
608 711
608 714
608 734
608 741
609 638
609 646
609 683
609 690
609 701
609 739
610 615
610 643
610 645
610 670
610 688
610 691
611 625
611 640
611 648
611 656
611 678
611 691
611 703
611 713
611 719
611 723
611 742
612 634
612 644
612 694
612 696
612 709
612 714
612 718
612 747
613 616
613 643
613 660
613 714
613 727
614 663
614 664
614 679
614 693
614 732
614 736
615 643
615 646
615 654
615 662
615 675
615 681
615 717
616 617
616 630
616 660
616 667
616 675
616 705
616 721
616 734
617 619
617 642
617 661
617 669
617 680
617 710
617 716
618 638
618 656
618 715
618 724
618 731
619 677
619 690
619 708
619 736
620 623
620 630
620 696
620 698
620 711
620 739
620 742
621 624
621 680
621 687
621 693
621 722
621 735
621 739
621 741
622 650
622 655
622 673
622 682
622 695
622 729
622 736
622 748
623 625
623 636
623 657
623 663
623 685
623 724
623 727
623 732
624 625
624 652
624 700
624 701
624 716
624 723
624 749
625 669
625 676
625 712
626 637
626 657
626 680
626 725
626 738
626 744
627 631
627 641
627 649
627 672
627 698
627 725
627 733
627 744
628 635
628 656
628 690
628 704
628 718
628 724
629 654
629 708
629 736
629 741
630 637
630 657
630 686
630 688
631 650
631 680
631 692
632 643
632 657
632 672
632 675
632 677
632 689
632 694
632 732
632 738
633 642
633 667
633 676
633 693
633 695
633 707
633 715
633 748
634 653
634 662
634 665
634 684
634 717
634 740
634 745
635 684
635 692
636 691
637 638
637 659
637 663
637 666
637 683
637 701
637 715
637 739
637 748
638 654
638 663
638 679
638 682
639 660
639 663
639 726
639 733
640 650
640 685
640 721
641 705
641 736
642 685
642 744
643 645
643 650
643 691
643 695
643 702
643 710
644 658
644 729
644 740
645 653
645 685
645 748
646 663
646 665
646 690
647 684
647 700
647 707
647 728
647 739
648 669
648 672
648 698
648 708
648 725
648 749
649 664
649 684
650 651
650 665
650 697
650 705
651 667
651 682
651 702
651 706
651 710
651 714
651 729
652 662
652 671
652 710
652 744
653 687
653 695
653 712
653 718
653 726
654 655
654 687
654 745
655 683
655 721
655 743
656 661
656 687
656 706
656 716
657 664
657 701
657 721
657 737
658 707
658 709
658 739
659 670
659 681
659 712
659 729
659 744
659 748
660 699
660 703
660 731
661 681
661 731
662 691
662 697
662 731
663 675
663 702
663 710
663 721
663 739
664 692
664 700
664 742
665 705
666 676
666 679
666 689
666 694
666 741
666 744
666 746
666 748
667 673
667 746
668 684
669 689
669 699
669 713
669 733
670 697
671 714
672 691
672 700
672 724
673 721
673 731
674 677
674 738
675 710
675 728
676 677
676 678
676 728
676 731
676 742
676 746
677 685
677 699
677 714
677 725
677 733
678 690
678 696
678 697
678 698
678 700
678 706
678 712
678 734
679 724
680 686
680 687
680 691
680 721
680 744
680 747
681 709
681 744
682 725
682 739
683 708
683 712
683 736
684 704
684 710
684 747
685 707
685 726
685 742
686 701
686 718
687 695
687 710
688 692
688 724
688 741
689 705
689 731
689 738
690 700
690 702
691 717
691 738
691 749
692 717
692 728
693 711
693 740
694 712
694 724
695 697
695 720
695 735
696 722
697 713
698 747
699 707
699 731
700 713
700 743
701 746
702 718
702 723
702 733
703 737
703 741
703 748
704 705
704 714
705 740
706 735
707 727
707 740
708 748
709 715
709 716
709 735
709 748
710 720
710 723
711 726
711 728
712 722
713 728
714 729
714 730
714 741
714 746
715 738
716 724
717 718
717 726
720 730
720 734
721 723
722 724
722 732
722 742
723 729
723 733
724 730
724 732
726 743
727 745
732 744
734 739
736 749
738 746
740 743
744 748
