1 343
2 11
3 86
3 307
3 373
3 419
3 481
4 19
4 266
4 310
4 384
4 437
4 450
5 187
5 473
6 121
6 305
6 417
7 32
7 188
7 434
7 435
8 278
8 328
9 352
9 385
10 325
11 39
11 96
11 174
11 279
11 353
11 408
11 412
11 494
12 100
12 258
13 365
14 239
14 257
14 452
15 178
16 291
16 307
16 448
17 80
17 85
17 259
17 284
18 198
18 226
18 405
19 149
19 225
19 257
19 479
20 72
20 85
20 143
21 188
21 203
21 275
21 340
21 362
21 418
22 48
22 190
22 354
22 423
23 163
23 258
23 405
24 164
24 339
26 144
27 340
27 456
28 84
28 230
29 284
29 458
30 160
30 277
30 464
30 494
31 150
32 161
32 449
33 379
33 418
34 159
34 443
35 172
35 182
35 229
36 203
36 313
37 142
37 454
38 106
38 185
38 214
38 415
39 371
39 462
40 108
40 231
41 104
41 202
41 259
42 80
42 283
43 48
44 485
45 327
45 380
45 407
47 142
48 59
48 222
48 295
48 424
49 111
49 146
49 215
49 235
49 310
49 312
49 362
49 393
49 443
49 463
49 474
50 410
51 205
51 262
51 408
52 135
52 147
52 238
52 354
52 489
53 357
53 488
54 280
55 81
55 201
55 222
55 257
55 273
55 453
55 457
55 494
56 68
56 416
57 457
58 158
59 165
59 284
59 298
59 323
60 200
60 330
60 364
60 399
61 164
61 226
61 249
61 476
62 76
62 151
62 367
62 374
63 90
63 162
63 220
63 367
63 396
64 282
64 389
65 69
65 74
65 107
65 165
65 190
66 163
66 276
66 353
66 399
66 408
66 431
67 160
67 461
68 219
68 235
68 300
68 415
68 436
69 142
69 260
69 477
70 171
70 189
70 422
71 143
71 215
71 289
72 162
72 336
72 406
72 437
73 106
73 132
73 164
73 362
74 133
75 76
75 127
75 145
75 237
75 330
76 489
77 93
77 98
77 170
77 184
77 229
77 383
77 387
77 407
77 415
78 191
79 100
80 192
80 242
80 288
81 90
82 246
82 276
82 465
82 482
83 109
86 146
86 249
86 267
86 329
87 108
87 262
87 299
87 311
87 475
88 125
88 296
89 110
89 194
89 460
90 406
90 488
91 405
93 104
93 379
94 491
94 495
95 175
95 280
95 427
97 138
97 291
97 309
97 326
98 127
98 144
98 356
99 453
101 142
101 342
102 154
103 153
103 491
104 490
105 321
105 486
107 251
108 115
108 175
108 435
109 306
110 192
110 439
110 451
111 208
111 243
111 390
112 396
113 125
113 210
113 245
113 273
113 473
114 167
114 179
114 487
115 143
115 220
115 387
116 338
116 440
117 474
117 482
118 218
118 458
118 499
119 184
120 466
121 297
122 491
123 290
123 385
124 234
124 306
124 375
124 473
125 355
125 408
126 235
126 334
127 282
127 460
128 142
128 312
128 378
128 401
129 196
129 355
131 395
132 222
132 230
132 432
133 357
134 175
134 345
135 218
135 318
135 474
136 147
136 185
136 217
136 365
137 142
137 302
138 235
138 386
139 387
139 478
140 307
140 369
140 417
140 485
142 202
142 238
142 258
142 274
142 319
143 275
143 392
143 413
143 479
144 164
144 202
144 242
144 308
144 370
144 451
145 365
145 444
147 166
147 197
147 379
148 237
148 303
148 482
148 494
148 497
149 226
149 248
149 433
150 482
151 361
151 413
151 484
152 364
153 295
153 318
154 158
154 459
155 304
155 340
155 355
155 425
155 470
155 496
156 324
156 427
156 443
156 467
157 372
157 432
158 335
159 340
159 473
161 370
161 398
162 210
162 262
162 486
163 176
163 227
163 280
167 351
167 361
167 459
168 320
168 479
169 452
170 194
170 403
171 411
172 195
172 348
173 203
173 332
173 397
174 194
174 224
174 377
174 491
175 191
175 229
176 269
176 317
176 373
176 452
177 312
177 354
177 493
178 204
178 277
179 401
180 189
180 444
180 484
181 304
182 310
182 411
182 413
183 184
183 301
183 420
183 430
184 296
184 300
184 413
185 343
185 472
186 283
186 469
189 269
189 362
189 392
189 423
190 219
191 407
192 361
192 428
192 447
192 481
193 375
194 398
194 440
196 303
196 374
198 366
200 263
200 390
200 399
200 496
203 353
203 487
204 406
206 243
206 315
206 331
207 397
208 301
208 459
209 288
209 305
209 390
210 460
211 299
213 276
213 286
215 310
215 316
215 319
215 338
215 389
215 394
215 467
216 229
216 230
216 246
216 284
216 304
216 456
216 482
217 324
218 247
219 377
219 432
220 298
220 311
220 406
220 418
221 451
222 362
223 460
226 396
226 430
228 261
228 293
229 354
230 267
230 325
231 238
232 323
232 434
232 439
233 309
234 269
234 286
234 324
234 366
237 303
237 380
237 465
237 499
239 411
241 392
241 434
243 407
245 287
246 265
246 391
247 264
248 342
248 401
248 416
248 467
249 383
251 269
251 354
253 280
256 310
256 478
257 366
257 382
258 427
259 392
260 409
262 381
262 499
264 265
264 311
265 436
265 476
266 391
266 410
267 370
268 480
269 311
269 398
269 477
269 490
270 296
271 307
271 405
271 427
271 465
273 277
274 369
274 469
275 287
275 302
276 327
276 496
277 283
277 489
278 435
279 348
279 442
280 283
280 357
281 418
281 434
281 456
282 327
282 338
282 347
283 357
283 424
284 372
284 414
285 344
285 381
286 409
286 467
288 488
289 334
289 397
290 410
290 457
291 401
291 492
292 302
292 403
292 429
294 317
294 497
295 297
296 365
296 413
297 499
298 488
299 462
299 498
302 378
303 305
303 417
304 428
305 417
306 404
308 379
308 407
312 340
312 357
313 382
313 479
314 386
314 434
315 421
315 486
316 466
317 353
317 469
317 476
318 336
319 423
320 439
320 466
321 458
322 449
324 384
324 483
326 445
327 447
329 484
331 392
332 449
338 379
342 367
342 454
343 349
344 431
346 373
347 388
347 482
351 478
354 481
354 495
355 368
356 430
358 444
359 495
364 420
365 474
367 387
367 417
367 435
368 437
370 397
376 398
378 394
381 382
383 388
384 448
388 449
388 478
397 427
397 480
398 405
400 429
403 417
405 464
406 408
407 477
409 426
410 443
410 499
419 441
421 470
421 481
422 448
424 466
425 450
425 477
430 458
430 474
432 475
434 467
434 492
439 444
439 496
440 459
440 498
441 489
442 486
453 474
457 463
462 483
462 486
469 477
478 480
