0 31
0 48
0 52
0 58
0 78
0 79
0 89
0 111
0 140
0 154
0 158
0 162
0 180
0 183
0 184
1 8
1 12
1 29
1 34
1 45
1 55
1 67
1 70
1 78
1 117
1 147
1 151
1 157
1 160
1 164
1 167
1 177
1 182
1 193
2 6
2 10
2 16
2 25
2 26
2 27
2 28
2 50
2 51
2 62
2 77
2 95
2 116
2 119
2 125
2 130
2 141
2 149
2 150
2 161
2 162
2 186
2 187
2 195
3 33
3 34
3 37
3 44
3 50
3 61
3 64
3 71
3 74
3 87
3 88
3 90
3 96
3 99
3 121
3 123
3 139
3 153
3 154
3 157
3 168
3 171
3 181
3 184
3 196
4 11
4 15
4 18
4 22
4 41
4 49
4 54
4 71
4 83
4 109
4 113
4 115
4 122
4 126
4 156
4 160
4 161
4 178
4 184
5 11
5 16
5 21
5 34
5 37
5 55
5 80
5 91
5 105
5 126
5 129
5 132
5 135
5 142
5 145
5 146
5 185
5 188
5 190
5 199
6 15
6 23
6 32
6 34
6 37
6 65
6 73
6 79
6 87
6 89
6 103
6 106
6 112
6 122
6 125
6 131
6 156
6 171
6 176
6 178
6 192
7 23
7 33
7 36
7 37
7 39
7 42
7 47
7 59
7 65
7 71
7 75
7 78
7 90
7 103
7 115
7 118
7 122
7 130
7 133
7 143
7 150
7 154
7 160
7 166
7 174
7 183
7 184
7 188
7 190
7 198
8 16
8 28
8 44
8 54
8 62
8 86
8 103
8 110
8 136
8 166
8 171
8 186
8 192
8 194
8 199
9 24
9 47
9 68
9 74
9 96
9 97
9 100
9 103
9 108
9 116
9 147
9 155
9 157
9 160
9 177
9 185
10 22
10 35
10 48
10 49
10 74
10 88
10 89
10 119
10 140
10 170
10 179
11 14
11 15
11 16
11 22
11 33
11 34
11 47
11 48
11 50
11 56
11 59
11 66
11 81
11 88
11 91
11 99
11 102
11 124
11 138
11 139
11 149
11 160
11 172
11 178
11 180
11 187
12 36
12 38
12 69
12 75
12 81
12 84
12 98
12 116
12 123
12 126
12 130
12 138
12 155
12 164
12 172
13 21
13 30
13 39
13 48
13 63
13 76
13 83
13 105
13 113
13 121
13 128
13 152
13 154
13 168
13 169
13 185
14 30
14 47
14 53
14 56
14 69
14 78
14 79
14 102
14 103
14 105
14 107
14 124
14 129
14 142
14 146
14 152
14 169
14 173
14 186
15 24
15 35
15 36
15 58
15 62
15 79
15 84
15 93
15 96
15 124
15 126
15 130
15 135
15 143
15 177
15 195
16 19
16 28
16 36
16 57
16 71
16 82
16 91
16 102
16 111
16 119
16 124
16 126
16 132
16 140
16 152
16 165
16 171
16 194
16 195
17 49
17 52
17 58
17 66
17 83
17 92
17 101
17 106
17 110
17 118
17 156
17 164
17 168
17 184
17 192
18 22
18 28
18 33
18 37
18 49
18 55
18 58
18 89
18 97
18 101
18 102
18 103
18 104
18 109
18 118
18 120
18 121
18 131
18 136
18 139
18 140
18 144
18 153
18 161
18 169
18 175
18 184
18 188
18 198
19 22
19 28
19 31
19 38
19 51
19 89
19 90
19 105
19 106
19 113
19 128
19 144
19 147
19 149
19 157
19 169
19 173
19 174
19 176
19 179
19 182
20 37
20 48
20 51
20 67
20 80
20 88
20 90
20 106
20 108
20 121
20 136
20 140
20 142
20 165
20 166
20 170
20 195
21 27
21 28
21 38
21 70
21 75
21 83
21 96
21 97
21 111
21 125
21 135
21 144
21 149
21 170
21 176
21 180
21 183
21 185
21 187
22 54
22 68
22 81
22 103
22 113
22 127
22 142
22 154
22 155
22 158
23 26
23 52
23 77
23 99
23 122
23 133
23 140
23 147
23 151
23 166
23 168
23 178
23 181
23 185
23 191
24 45
24 53
24 67
24 72
24 82
24 84
24 90
24 107
24 125
24 130
24 133
24 141
24 148
24 153
24 168
24 171
24 172
24 183
24 190
24 191
24 192
24 196
24 198
25 36
25 46
25 55
25 70
25 76
25 82
25 85
25 86
25 113
25 119
25 127
25 133
25 141
25 168
25 191
25 192
25 196
25 198
26 41
26 57
26 59
26 145
26 150
26 156
27 36
27 39
27 46
27 47
27 61
27 83
27 84
27 91
27 101
27 112
27 114
27 133
27 151
27 154
27 159
27 164
27 179
27 189
27 192
28 42
28 55
28 59
28 65
28 74
28 78
28 82
28 83
28 100
28 109
28 119
28 128
28 133
28 150
28 165
28 169
28 173
29 45
29 52
29 59
29 60
29 82
29 91
29 96
29 97
29 107
29 119
29 122
29 131
29 147
30 32
30 36
30 58
30 92
30 109
30 115
30 120
30 123
30 128
30 141
30 142
30 145
30 167
30 175
30 185
31 99
31 103
31 111
31 112
31 126
31 134
31 135
31 151
31 152
31 155
31 160
31 163
31 171
31 197
32 35
32 37
32 38
32 40
32 46
32 62
32 74
32 84
32 86
32 119
32 124
32 125
32 129
32 130
32 144
32 167
32 168
32 182
33 36
33 41
33 45
33 57
33 58
33 123
33 129
33 137
33 143
33 145
33 149
33 156
34 55
34 57
34 58
34 68
34 72
34 83
34 94
34 96
34 99
34 105
34 109
34 114
34 119
34 125
34 146
34 159
34 163
34 168
34 195
34 197
35 37
35 47
35 49
35 66
35 84
35 90
35 97
35 108
35 124
35 134
35 139
35 143
35 169
35 184
36 40
36 98
36 112
36 124
36 130
36 177
37 42
37 54
37 61
37 69
37 72
37 86
37 105
37 111
37 121
37 125
37 128
37 129
37 152
37 190
37 194
38 40
38 55
38 62
38 65
38 88
38 99
38 134
38 135
38 149
38 154
38 168
38 176
39 42
39 43
39 49
39 51
39 58
39 59
39 65
39 66
39 67
39 68
39 77
39 82
39 85
39 90
39 96
39 100
39 127
39 132
39 139
39 144
39 161
39 162
39 163
39 178
39 181
39 185
40 41
40 43
40 125
40 134
40 139
40 143
40 152
40 157
40 163
40 171
40 175
40 179
41 43
41 44
41 58
41 100
41 104
41 116
41 130
41 166
41 172
41 181
41 182
41 197
42 61
42 79
42 84
42 88
42 91
42 101
42 111
42 118
42 151
42 154
42 161
42 177
42 179
42 188
42 189
42 190
43 47
43 58
43 64
43 74
43 84
43 105
43 129
43 156
43 158
43 164
43 177
43 186
44 67
44 68
44 71
44 83
44 84
44 85
44 110
44 114
44 116
44 124
44 140
44 152
44 181
44 192
45 57
45 63
45 67
45 77
45 85
45 102
45 104
45 107
45 111
45 118
45 144
45 150
45 153
45 157
45 168
45 181
45 199
46 59
46 77
46 92
46 98
46 99
46 140
46 152
46 164
46 171
46 172
46 184
47 49
47 65
47 78
47 88
47 102
47 104
47 134
47 156
47 162
47 164
47 165
47 169
47 189
47 198
48 52
48 53
48 58
48 64
48 73
48 78
48 94
48 103
48 111
48 114
48 125
48 130
48 133
48 138
48 155
48 178
48 181
48 187
49 63
49 72
49 86
49 90
49 101
49 111
49 135
49 184
50 57
50 108
50 112
50 123
50 139
50 143
50 144
50 161
50 179
50 181
50 187
50 188
50 189
50 195
50 196
50 199
51 68
51 79
51 94
51 96
51 97
51 102
51 123
51 141
51 164
51 166
51 195
52 61
52 75
52 76
52 78
52 80
52 107
52 136
52 139
52 159
52 164
52 166
52 187
52 189
53 57
53 69
53 72
53 86
53 89
53 90
53 92
53 124
53 137
53 149
53 162
53 166
53 183
54 56
54 63
54 73
54 83
54 88
54 100
54 114
54 129
54 134
54 163
54 165
54 171
54 175
54 178
55 72
55 84
55 90
55 114
55 119
55 131
55 143
55 144
55 146
55 163
55 189
56 63
56 74
56 77
56 78
56 79
56 85
56 100
56 117
56 134
56 139
56 155
56 167
56 184
56 186
56 195
57 61
57 64
57 85
57 117
57 118
57 125
57 128
57 129
57 154
57 185
57 187
57 188
58 66
58 89
58 117
58 119
58 137
58 145
58 154
58 156
58 159
58 175
58 188
59 71
59 79
59 80
59 89
59 106
59 109
59 111
59 122
59 124
59 137
59 139
59 148
59 164
59 176
59 177
59 188
59 191
59 198
60 63
60 68
60 121
60 133
60 165
60 167
60 168
60 177
60 195
61 68
61 75
61 87
61 92
61 99
61 122
61 123
61 127
61 145
61 155
61 178
61 179
61 185
62 74
62 78
62 80
62 85
62 94
62 99
62 100
62 101
62 133
62 153
62 159
63 64
63 75
63 101
63 114
63 115
63 116
63 120
63 121
63 122
63 126
63 129
63 134
63 136
63 138
63 141
63 153
63 162
63 166
63 172
63 178
64 68
64 69
64 71
64 98
64 106
64 108
64 109
64 111
64 149
64 155
64 158
64 171
64 178
64 179
64 188
64 189
65 67
65 71
65 122
65 136
65 161
65 163
65 167
65 173
65 179
65 182
65 183
65 186
65 195
66 82
66 98
66 108
66 121
66 133
66 154
66 189
67 76
67 80
67 83
67 90
67 116
67 125
67 129
67 136
67 149
67 155
67 159
67 160
67 175
67 195
68 71
68 73
68 87
68 98
68 99
68 103
68 105
68 116
68 117
68 129
68 178
68 180
68 191
69 80
69 132
69 136
69 170
69 191
69 195
69 198
70 73
70 77
70 93
70 94
70 113
70 116
70 117
70 120
70 145
70 166
70 181
70 195
71 72
71 75
71 78
71 90
71 102
71 134
71 156
71 163
71 170
71 173
71 174
71 176
71 177
71 186
71 195
72 75
72 87
72 96
72 112
72 121
72 144
72 152
72 170
72 173
72 180
73 88
73 95
73 103
73 115
73 132
73 141
73 145
73 150
73 193
73 194
73 197
74 90
74 92
74 109
74 123
74 138
74 143
74 144
74 149
74 154
74 158
74 167
74 168
74 174
74 177
74 184
74 196
75 94
75 103
75 104
75 105
75 129
75 141
75 170
75 176
75 182
75 190
76 77
76 78
76 104
76 110
76 117
76 120
76 127
76 135
76 140
76 148
76 158
76 185
76 191
76 194
77 97
77 101
77 117
77 118
77 127
77 144
77 152
77 160
77 166
77 178
77 186
78 83
78 115
78 124
78 135
78 137
78 145
78 146
78 147
78 149
78 150
78 165
78 173
78 186
79 87
79 98
79 101
79 126
79 134
79 136
79 143
79 147
79 174
79 177
79 181
79 199
80 93
80 114
80 129
80 132
80 154
80 161
80 190
80 194
81 93
81 111
81 120
81 138
81 156
81 166
81 173
81 175
81 177
81 181
81 190
81 192
82 83
82 86
82 91
82 111
82 125
82 134
82 159
82 160
82 161
82 172
82 175
82 178
83 89
83 96
83 104
83 111
83 115
83 116
83 118
83 128
83 147
83 152
83 156
83 167
83 193
84 87
84 126
84 139
84 152
84 161
84 165
84 171
84 188
84 197
85 86
85 87
85 99
85 104
85 111
85 146
85 147
85 164
85 183
85 192
86 93
86 104
86 112
86 114
86 117
86 118
86 124
86 143
86 144
87 115
87 120
87 129
87 134
87 144
87 151
87 154
87 160
87 165
87 178
87 184
87 194
88 100
88 103
88 105
88 108
88 134
88 142
88 149
88 152
88 155
88 158
88 161
88 169
88 192
89 92
89 101
89 167
89 170
89 185
89 188
89 189
90 94
90 95
90 114
90 120
90 130
90 136
90 144
90 145
90 150
90 151
90 161
90 171
90 181
90 194
91 112
91 129
91 139
91 173
91 179
91 192
91 199
92 101
92 102
92 116
92 136
92 146
92 147
92 154
92 162
92 194
93 98
93 127
93 161
93 163
93 164
93 180
93 193
94 95
94 100
94 115
94 116
94 126
94 129
94 142
94 150
94 153
94 157
94 165
94 181
94 194
95 105
95 112
95 136
95 159
95 187
95 194
95 196
96 100
96 106
96 118
96 136
96 140
96 145
96 155
96 165
96 167
96 171
96 172
97 105
97 120
97 125
97 134
97 155
97 159
97 166
97 177
97 178
97 181
97 184
97 195
97 198
98 112
98 115
98 118
98 161
98 163
99 103
99 114
99 119
99 126
99 128
99 133
99 140
99 170
99 176
99 178
99 179
99 183
99 193
100 133
100 150
100 153
100 166
100 173
100 188
100 195
101 121
101 127
101 137
101 142
101 192
102 110
102 123
102 137
102 138
102 143
102 150
102 193
103 104
103 121
103 140
103 149
103 156
103 169
103 179
103 197
104 120
104 123
104 124
104 136
104 155
104 184
104 189
105 110
105 114
105 128
105 135
105 136
105 141
105 143
105 153
105 163
105 167
105 169
105 199
106 125
106 134
106 147
106 171
106 183
106 188
107 108
107 112
107 120
107 124
107 138
107 142
107 171
107 173
107 176
107 179
108 112
108 135
108 148
108 155
108 166
108 178
108 195
108 198
109 115
109 123
109 151
109 170
109 172
109 175
110 111
110 123
110 125
110 142
110 151
110 155
110 160
111 113
111 117
111 123
111 129
111 157
111 161
111 170
111 189
112 123
112 131
112 132
112 142
112 157
112 161
112 171
112 180
112 190
112 192
113 116
113 118
113 126
113 128
113 141
113 147
113 173
113 184
113 199
114 116
114 119
114 123
114 181
114 188
114 190
115 153
115 173
115 179
115 181
115 194
116 125
116 132
116 144
116 155
116 157
116 160
116 167
116 180
116 191
117 124
117 126
117 127
117 140
117 142
117 168
117 173
117 184
117 192
117 193
118 119
118 121
118 124
118 130
118 166
118 172
118 181
118 186
118 189
118 195
119 125
119 141
119 151
119 156
119 164
119 167
119 170
119 174
119 177
119 188
119 189
120 123
120 126
120 133
120 142
120 150
120 154
120 175
120 185
120 193
121 135
121 148
121 150
121 155
121 168
121 173
121 186
122 192
123 126
123 127
123 137
123 153
123 156
123 158
123 162
123 168
123 197
124 127
124 136
124 158
124 176
124 177
124 178
124 191
124 192
125 139
125 157
125 179
125 180
125 185
125 186
125 187
125 196
126 141
126 147
126 173
126 186
126 198
127 139
127 144
127 154
127 163
127 171
127 179
127 191
128 132
128 142
128 148
128 149
128 160
128 170
128 178
128 197
129 135
129 138
129 139
129 171
129 173
129 190
129 193
130 138
130 145
130 169
130 190
131 133
131 140
131 164
131 165
131 169
131 176
131 196
131 197
132 133
132 135
132 159
133 140
133 145
133 155
133 162
133 170
133 197
134 142
134 145
134 164
134 183
134 191
135 139
135 140
135 155
135 163
135 168
135 179
135 197
135 199
136 143
136 146
136 159
136 160
136 167
136 172
136 177
136 184
136 193
136 199
137 166
137 185
137 186
137 196
137 199
138 148
138 149
138 152
138 153
138 160
138 177
138 180
138 184
138 190
138 199
139 148
139 149
139 170
139 171
139 187
140 175
140 179
140 180
140 186
140 197
141 146
141 157
141 167
141 181
141 188
141 192
141 194
141 199
142 149
142 151
142 155
142 170
142 176
142 195
142 199
143 145
143 159
143 186
143 193
143 195
143 197
144 164
144 165
144 186
144 187
144 192
144 194
145 152
146 152
146 166
146 173
147 163
147 169
148 170
148 188
148 192
149 167
149 174
149 182
149 196
149 199
150 156
150 158
150 159
150 168
150 175
151 153
151 165
151 168
151 171
151 180
151 185
151 187
151 192
151 198
152 167
152 169
152 189
153 181
153 189
153 193
153 194
153 195
153 199
154 163
154 166
154 180
154 184
154 193
154 195
154 199
155 156
155 175
155 180
155 181
155 194
155 195
156 166
156 186
157 169
157 172
157 179
157 196
158 162
159 168
159 171
159 188
159 193
159 199
160 162
160 179
160 181
160 186
160 189
160 195
161 164
161 171
161 172
162 167
162 176
162 194
162 195
162 196
162 199
163 170
163 179
163 183
163 184
163 191
164 175
164 190
165 172
165 199
166 176
166 178
166 186
166 188
166 191
167 194
167 197
168 194
169 199
170 176
170 183
170 188
170 189
170 192
170 199
171 183
172 187
172 196
173 182
173 194
173 198
174 181
174 194
174 196
175 179
175 187
178 182
178 189
179 184
179 185
179 196
180 191
180 196
181 185
181 192
181 193
182 199
183 198
184 198
186 195
187 188
187 197
188 192
188 194
189 198
190 198
191 196
194 196
194 197
