0 25
0 48
0 198
0 281
0 320
1 17
1 127
1 163
1 225
2 134
2 262
2 348
3 92
3 216
3 257
4 252
4 318
4 319
5 62
5 185
6 12
6 100
6 222
6 304
7 44
7 204
7 226
8 239
9 226
10 272
11 229
12 231
12 232
12 345
13 67
13 188
13 311
14 130
14 246
14 269
15 241
16 143
16 162
16 238
16 259
17 33
17 97
17 124
18 109
18 132
19 41
19 200
20 181
20 281
21 82
21 232
21 269
21 330
21 332
22 136
22 186
22 190
23 213
24 75
24 156
24 159
25 167
27 35
27 110
27 113
27 300
28 155
28 161
28 172
28 303
29 103
29 130
29 273
30 109
30 136
30 139
30 157
30 173
30 203
31 111
31 144
31 177
31 262
31 279
31 290
31 343
32 64
32 209
33 98
33 154
33 277
33 294
34 129
34 322
35 39
35 96
35 321
36 84
36 114
38 212
38 323
39 116
39 236
40 89
40 147
41 74
41 122
41 223
42 192
43 212
43 242
44 204
44 259
44 288
44 320
44 326
45 158
46 150
46 203
46 296
47 128
48 180
48 181
48 200
48 292
48 344
49 241
49 259
50 78
50 180
50 181
50 194
50 252
50 271
50 342
51 122
51 177
51 310
53 174
53 258
53 317
54 85
54 163
55 296
56 116
56 129
56 169
56 243
56 315
56 333
56 347
57 128
58 169
59 129
59 304
60 98
60 183
60 213
61 155
61 208
61 265
61 331
64 88
64 258
65 242
65 280
66 222
66 327
67 71
67 192
68 100
68 175
68 176
68 304
68 310
69 117
69 136
69 252
70 324
71 137
71 182
71 217
71 237
71 265
71 315
71 333
72 102
72 162
73 186
73 212
73 244
73 252
75 89
75 98
75 250
77 144
77 220
79 279
79 299
80 115
80 226
80 295
81 323
82 83
82 277
83 172
83 270
84 104
84 258
86 95
87 213
87 219
87 250
89 214
90 112
90 256
90 283
90 291
91 270
92 159
93 281
93 304
94 193
94 276
96 320
97 245
97 280
98 105
98 337
99 206
99 241
100 167
100 317
100 318
101 230
103 252
103 347
104 229
104 235
105 262
105 271
106 120
108 231
108 312
109 287
110 249
111 126
111 243
112 251
113 197
113 287
115 117
115 118
115 173
115 247
115 295
116 182
116 287
116 303
116 323
117 208
117 222
118 131
118 253
118 314
118 318
120 272
120 303
121 194
121 319
121 331
123 192
123 260
123 316
124 193
125 254
125 340
126 130
126 280
126 304
127 141
127 305
127 316
128 221
128 280
129 174
130 334
131 347
132 313
132 314
134 234
134 322
135 161
135 339
136 143
136 218
136 255
136 284
136 341
137 196
137 218
138 327
138 336
139 202
139 270
140 145
142 232
142 344
143 322
145 237
146 157
146 213
147 207
148 262
149 203
149 244
149 255
149 345
150 152
150 189
150 251
152 181
152 254
153 223
153 301
153 332
154 219
154 271
154 287
154 335
155 222
155 261
156 275
157 348
158 221
158 273
158 293
159 221
160 291
164 291
165 199
165 217
165 292
165 329
166 232
166 289
166 311
167 187
167 341
168 185
168 254
171 203
172 333
173 252
173 282
174 226
174 293
176 257
176 273
177 189
177 300
177 311
178 293
178 306
180 270
182 218
183 316
184 230
184 282
185 223
185 284
185 325
186 199
186 295
187 269
188 196
189 208
191 308
192 342
196 322
198 221
198 280
198 301
199 228
199 259
199 278
200 304
202 204
203 249
204 207
206 229
207 266
208 246
209 299
211 268
212 226
212 303
212 305
212 341
213 256
213 329
214 322
217 274
217 294
218 250
219 274
219 324
219 328
221 300
221 326
222 230
222 236
223 278
223 305
224 299
225 228
225 285
225 321
226 318
226 336
227 340
228 306
229 266
231 235
234 247
237 333
239 291
240 246
240 258
240 268
240 291
241 289
241 342
243 302
246 282
247 286
247 345
249 291
249 298
249 301
249 320
251 264
252 309
253 262
253 280
257 339
258 313
259 269
259 318
262 335
264 305
266 296
269 308
270 307
271 278
271 283
273 280
273 344
274 347
275 301
276 327
277 336
277 337
279 313
280 292
280 335
280 345
283 285
283 300
284 304
284 346
292 337
294 314
294 345
298 308
298 313
302 314
302 334
302 337
303 331
307 329
308 326
310 311
311 334
313 343
315 333
317 328
318 342
327 345
347 348
