0 108
0 170
0 600
0 733
1 446
1 561
2 35
2 459
2 503
3 40
3 372
4 269
5 671
5 798
5 952
6 22
6 617
7 222
7 717
8 215
8 728
8 978
8 980
9 40
9 46
9 174
10 748
11 105
11 231
11 326
12 709
12 847
13 155
13 449
13 798
14 223
14 666
14 677
14 734
15 199
15 535
15 756
15 963
16 142
16 710
16 867
16 888
17 654
18 183
19 223
19 346
19 386
20 280
21 155
21 158
21 256
21 358
21 713
22 473
22 883
23 83
23 318
23 497
23 650
23 692
23 706
23 915
23 972
24 403
25 179
25 242
25 361
25 644
25 760
25 906
26 156
26 679
26 851
27 471
27 750
27 877
28 178
28 383
28 581
28 744
29 224
29 570
30 98
30 525
30 617
31 292
31 391
31 611
31 660
32 219
32 657
32 833
33 186
33 349
33 443
33 530
33 755
33 792
34 117
34 406
35 41
35 55
35 955
36 418
36 460
36 582
36 685
37 129
37 134
38 282
39 170
39 678
39 825
39 932
40 91
40 531
40 533
40 761
41 387
41 425
41 747
42 525
42 951
42 972
43 842
44 80
44 773
44 799
44 922
44 934
45 346
45 375
45 485
45 663
45 920
46 120
46 573
46 769
46 835
46 938
47 209
47 800
48 339
48 420
48 731
48 765
49 86
49 352
49 874
49 921
50 777
51 441
51 528
52 235
52 262
52 632
52 971
53 236
53 766
55 258
55 697
56 225
56 383
56 514
56 766
56 947
56 987
57 192
57 375
57 689
57 701
57 836
58 66
58 484
58 489
59 182
59 288
59 404
59 672
59 777
59 927
60 182
60 516
61 142
61 735
62 316
62 929
62 942
63 716
63 874
64 137
64 733
64 978
65 129
65 175
65 593
65 890
66 300
66 306
66 336
66 351
66 493
66 591
66 615
67 111
67 792
68 352
68 707
69 337
70 192
70 195
70 533
71 170
72 261
72 530
72 561
72 725
73 157
73 509
73 757
73 792
74 413
74 930
75 825
75 996
76 81
76 101
76 245
77 79
77 366
77 583
77 670
77 687
78 144
78 381
78 911
79 530
79 655
80 109
80 218
80 656
81 166
81 210
81 474
81 595
82 255
82 353
82 427
83 304
83 315
83 366
83 940
84 992
85 196
85 503
85 560
85 900
86 485
86 637
87 728
88 105
89 789
90 197
91 483
91 602
93 101
93 177
93 492
93 686
94 378
94 738
96 554
96 597
96 811
97 189
97 337
97 351
97 364
97 960
98 242
98 549
98 614
98 783
98 900
98 986
99 130
99 232
99 433
99 437
99 611
100 175
100 262
100 737
100 836
100 923
102 340
102 534
102 838
102 839
103 145
103 146
103 248
103 309
103 755
104 352
104 433
104 486
104 775
104 899
105 173
105 221
105 623
105 713
106 500
106 728
106 754
106 878
106 926
107 429
107 658
107 670
108 162
108 262
108 419
108 448
108 654
109 673
109 911
110 229
110 327
110 682
111 176
111 415
111 801
112 229
112 333
112 618
112 679
112 795
112 966
113 695
114 625
114 651
114 654
114 929
115 305
115 494
115 804
116 237
116 273
116 557
116 708
117 261
118 287
118 701
119 402
119 955
120 200
120 206
121 190
121 804
122 499
122 526
122 804
123 414
123 571
124 278
124 389
124 437
124 499
124 852
125 476
125 551
125 770
126 411
126 418
126 901
127 290
127 530
127 862
128 157
128 245
128 534
128 917
129 401
129 920
129 957
130 485
130 772
131 169
131 922
132 600
133 555
133 884
134 159
134 325
134 415
134 876
135 450
135 455
135 478
135 669
135 961
136 144
136 187
136 379
136 563
136 672
136 900
138 698
139 909
140 728
141 393
142 171
142 289
144 281
144 477
144 853
144 889
145 869
147 766
147 907
148 330
149 753
149 848
150 152
150 210
150 574
152 173
152 709
153 167
153 257
153 567
154 627
154 945
155 550
155 603
156 631
156 984
158 226
158 431
159 177
160 162
160 354
160 961
161 366
161 559
161 833
162 218
162 889
163 252
163 281
163 513
164 731
164 846
164 885
165 472
165 728
165 939
166 387
166 471
166 738
166 981
167 200
167 638
167 654
167 767
167 787
167 826
168 210
168 305
168 346
168 558
170 285
172 331
172 698
174 317
174 468
174 646
174 940
175 872
175 973
176 239
176 425
176 546
176 790
176 964
177 660
178 517
178 878
179 588
179 904
180 256
180 402
180 883
182 255
182 416
182 513
182 694
182 711
182 912
183 683
183 777
184 274
185 232
185 901
185 935
186 329
186 936
186 960
187 319
187 330
187 437
187 770
188 437
188 599
188 660
188 671
188 990
189 260
189 438
189 448
189 533
189 922
190 309
190 419
190 435
190 579
191 433
191 479
191 711
191 857
191 858
192 399
192 513
192 545
193 343
193 626
194 353
194 386
194 395
195 261
196 447
196 512
197 767
198 409
199 774
199 984
201 408
201 507
201 587
201 668
202 230
202 260
202 511
202 883
204 577
204 796
204 844
207 739
207 758
208 582
208 705
211 483
212 380
212 757
213 489
214 355
214 636
214 963
215 227
215 451
215 552
215 584
215 840
215 967
216 393
216 952
216 998
217 502
217 509
217 741
217 793
217 811
217 832
217 907
217 924
218 423
218 803
218 833
218 979
219 521
220 962
221 504
221 661
222 608
222 634
222 744
222 799
222 894
223 255
224 455
224 609
224 819
225 227
225 393
225 978
226 452
227 437
227 742
228 255
228 868
228 960
229 288
229 314
229 817
229 931
231 539
231 607
231 690
231 763
232 392
232 423
232 520
232 773
233 267
234 445
234 510
234 601
235 352
235 789
236 928
237 612
237 847
238 787
239 275
239 453
240 325
240 749
240 876
241 696
241 839
242 868
242 910
243 381
243 970
244 387
244 579
245 631
246 932
247 292
247 433
247 937
248 459
248 466
248 536
248 605
248 685
248 873
249 442
249 525
249 584
249 909
250 400
251 747
252 435
252 568
252 667
252 914
253 361
253 391
254 488
254 922
255 266
255 649
255 883
256 267
256 448
256 805
256 846
257 516
258 655
258 955
259 959
260 300
261 658
262 336
262 807
263 938
264 727
264 925
265 277
265 900
266 725
267 887
267 891
268 334
268 368
268 496
269 892
270 548
270 557
270 928
271 846
272 955
273 504
273 674
273 686
273 887
274 313
274 728
274 740
275 743
275 808
275 815
276 696
277 732
277 905
278 700
279 475
279 846
279 975
280 757
280 893
281 932
282 513
282 595
283 853
284 350
284 618
284 813
286 437
287 332
287 887
287 913
288 804
289 919
290 475
290 615
290 670
290 713
290 839
291 441
291 553
291 677
291 968
292 537
292 657
293 357
294 909
295 360
295 820
295 977
296 931
297 776
297 963
298 570
298 610
298 673
298 732
299 864
301 429
303 432
303 685
304 647
305 472
305 705
305 776
306 487
306 527
306 628
307 732
307 854
307 954
309 321
309 453
309 870
310 507
310 651
310 662
310 931
312 351
312 400
312 478
312 527
312 988
314 612
315 318
315 400
315 522
315 570
315 621
315 974
316 427
316 756
316 821
317 693
317 857
318 452
318 492
318 613
318 906
319 587
319 655
319 661
320 730
320 852
320 955
321 473
321 520
321 805
323 598
325 568
327 522
327 855
328 352
328 968
328 994
329 412
329 537
330 345
330 808
330 986
331 672
331 741
331 804
332 663
333 614
334 471
334 738
335 441
335 567
335 717
336 343
336 484
336 720
337 840
337 872
338 552
338 894
341 976
342 684
342 978
343 827
344 390
344 505
344 809
344 887
345 465
345 712
346 444
347 562
348 975
349 749
349 756
349 957
349 974
350 419
351 403
351 981
352 793
352 846
353 431
353 493
353 520
353 952
355 760
355 924
356 527
357 383
357 449
357 467
357 831
357 943
357 969
358 376
358 617
358 731
358 842
358 902
359 617
359 770
359 823
360 512
360 724
361 508
363 598
363 607
364 708
365 390
365 781
366 640
367 793
367 962
368 540
368 754
369 503
369 897
371 401
371 642
371 714
372 517
372 652
372 955
372 978
373 478
374 569
374 905
374 957
376 681
378 604
378 637
378 946
379 900
380 622
380 748
381 608
382 585
382 646
383 495
383 653
384 570
384 638
384 818
384 972
385 532
385 695
386 829
387 418
387 712
388 640
388 814
389 595
389 704
389 866
390 537
390 909
391 628
391 783
391 902
392 567
392 807
394 428
394 649
394 743
395 430
395 782
396 857
397 576
398 876
398 915
398 952
399 483
399 679
399 763
400 551
400 921
401 914
402 474
402 584
402 634
402 642
403 905
404 530
404 931
407 658
407 696
407 859
408 529
408 902
409 734
410 417
410 798
410 820
411 443
411 488
412 540
412 980
413 445
414 774
414 844
414 975
415 442
415 737
416 642
416 976
417 850
417 928
418 706
418 953
419 460
419 535
419 664
419 759
420 508
420 605
420 670
420 697
420 930
421 604
421 859
423 778
424 611
424 825
425 614
425 665
425 860
426 655
426 901
427 510
427 599
427 756
428 675
429 553
430 604
430 985
431 856
432 661
432 715
433 466
433 501
433 588
433 741
434 639
434 809
435 577
436 631
436 903
437 799
439 698
440 614
440 713
440 760
441 475
441 757
442 458
442 853
443 617
444 510
444 715
444 796
444 938
445 475
445 663
445 756
446 667
446 768
446 838
446 843
446 890
447 483
447 544
447 693
447 747
448 754
448 882
448 909
449 933
450 631
450 968
451 577
451 636
452 698
452 747
452 809
452 818
452 942
453 649
453 926
453 935
454 517
454 866
454 988
455 759
456 666
456 669
457 485
457 684
458 951
459 575
459 598
459 766
460 551
460 654
460 758
460 827
461 854
462 502
462 571
462 823
464 746
466 756
466 888
467 828
468 819
469 583
469 885
470 482
470 542
470 639
470 715
470 793
471 532
471 573
471 738
471 769
472 782
472 814
474 519
474 854
475 871
476 519
476 657
476 877
476 921
477 478
477 931
477 941
477 981
478 547
479 556
481 962
483 792
483 935
483 995
484 670
485 607
485 733
485 843
486 663
488 525
488 634
488 790
488 978
489 719
489 760
489 763
489 806
489 824
490 546
491 591
491 693
491 771
491 988
492 551
492 688
492 865
494 537
494 653
495 871
497 514
498 539
498 648
498 793
498 854
499 507
499 532
499 977
500 839
501 570
502 656
502 753
503 709
503 950
507 882
508 865
509 844
510 734
511 529
511 905
512 739
513 713
513 941
514 682
515 792
515 953
516 998
517 856
517 950
519 579
520 685
520 914
521 968
522 700
523 668
524 986
525 582
525 827
526 972
527 948
529 647
529 688
529 962
530 823
531 582
531 583
531 594
531 627
532 729
533 586
533 674
533 725
533 848
534 710
534 765
535 614
535 654
537 919
539 729
540 621
540 683
541 695
541 876
542 993
543 692
544 666
544 881
546 661
546 684
547 739
547 850
548 883
550 631
550 642
552 698
552 877
553 691
554 658
555 958
556 562
556 663
556 939
557 621
557 896
558 823
558 886
559 950
560 985
562 710
562 791
563 696
566 715
566 750
568 823
570 656
570 712
570 873
573 639
573 839
574 710
574 736
576 613
576 928
578 788
579 596
579 837
580 693
580 720
580 769
580 779
581 657
582 836
583 999
586 627
586 882
586 970
587 643
587 936
587 944
587 979
589 944
590 853
593 866
594 679
596 752
596 764
596 892
598 628
598 682
599 828
599 936
599 956
600 751
601 642
602 953
603 909
604 941
606 906
607 666
608 673
608 779
609 631
609 952
610 895
610 982
611 796
613 874
613 951
616 688
617 746
617 999
620 974
622 773
624 952
625 791
626 744
628 689
628 988
633 848
633 864
633 959
634 884
634 927
634 980
635 739
636 689
637 783
638 642
638 715
638 864
640 779
640 863
640 969
641 761
641 847
644 863
645 915
646 827
648 659
648 743
650 855
650 921
651 719
651 883
654 902
655 697
655 726
658 760
659 837
660 685
661 998
662 664
662 874
662 970
665 844
666 751
666 848
667 687
668 861
668 957
670 928
673 832
675 747
675 895
676 948
676 966
677 802
677 860
679 891
680 884
681 846
681 865
682 715
682 878
685 956
686 801
688 738
688 894
689 735
691 764
692 791
692 923
693 914
693 943
693 993
698 701
699 839
703 779
705 758
705 818
707 973
709 953
709 955
710 994
711 820
712 908
713 804
713 970
714 740
715 842
715 869
716 850
718 915
718 928
720 878
721 835
722 937
723 973
726 817
734 833
734 950
735 763
735 878
735 879
737 772
739 838
739 965
745 968
750 786
752 764
754 951
755 942
756 870
758 777
760 778
760 816
761 959
764 999
766 873
766 980
767 847
767 947
769 910
771 797
772 800
777 978
784 826
789 857
789 872
793 899
793 901
795 811
796 878
801 917
803 928
804 865
805 819
805 849
805 918
807 976
808 989
809 876
811 889
812 871
814 987
816 858
816 947
816 986
819 994
822 990
826 953
832 851
834 972
835 976
837 988
839 863
839 933
841 870
848 866
848 989
849 893
849 989
849 998
853 981
855 995
857 892
859 888
859 982
863 864
863 984
863 985
866 946
866 948
867 879
870 963
882 937
891 940
892 944
893 906
897 979
901 982
903 916
903 972
905 932
909 919
910 941
914 988
924 944
925 938
925 975
928 978
932 934
933 950
938 984
944 950
948 983
951 985
957 992
