0 4
0 34
0 69
0 76
0 86
0 92
0 110
0 131
0 133
0 144
0 151
0 160
0 170
0 178
0 180
0 183
0 192
0 202
0 214
0 215
0 232
0 240
0 259
0 263
0 265
0 283
0 298
0 329
0 343
1 16
1 24
1 38
1 44
1 66
1 67
1 71
1 91
1 102
1 106
1 123
1 127
1 132
1 141
1 152
1 161
1 182
1 204
1 213
1 220
1 237
1 238
1 246
1 262
1 264
1 265
1 279
1 282
1 313
1 327
1 330
2 16
2 20
2 21
2 37
2 40
2 44
2 55
2 96
2 99
2 106
2 109
2 145
2 146
2 164
2 166
2 193
2 200
2 206
2 250
2 258
2 278
2 287
2 290
2 302
2 316
2 318
2 324
2 329
2 336
3 7
3 9
3 15
3 38
3 48
3 52
3 57
3 59
3 77
3 81
3 102
3 139
3 144
3 150
3 154
3 156
3 164
3 188
3 198
3 209
3 212
3 214
3 228
3 236
3 244
3 247
3 269
3 279
3 297
3 311
3 320
3 324
3 327
3 328
3 335
3 340
3 343
3 349
4 8
4 11
4 16
4 25
4 26
4 40
4 41
4 42
4 53
4 55
4 63
4 67
4 74
4 84
4 93
4 112
4 117
4 118
4 135
4 148
4 151
4 152
4 170
4 177
4 212
4 214
4 244
4 273
4 279
4 286
4 295
4 311
4 328
4 344
5 15
5 16
5 23
5 31
5 40
5 65
5 68
5 75
5 78
5 82
5 87
5 96
5 100
5 109
5 118
5 129
5 148
5 154
5 168
5 178
5 187
5 190
5 192
5 193
5 228
5 236
5 246
5 253
5 256
5 278
5 294
5 295
5 301
5 304
5 306
5 318
5 324
5 347
6 47
6 52
6 92
6 98
6 115
6 116
6 144
6 149
6 154
6 178
6 182
6 183
6 195
6 206
6 225
6 232
6 254
6 260
6 265
6 273
6 285
6 303
6 305
6 316
6 317
6 319
6 320
6 326
6 327
6 346
7 24
7 39
7 44
7 49
7 55
7 57
7 60
7 78
7 93
7 102
7 121
7 125
7 140
7 146
7 147
7 177
7 190
7 193
7 195
7 212
7 238
7 247
7 256
7 272
7 280
7 287
7 290
7 297
7 299
7 305
7 318
7 338
7 347
8 21
8 36
8 37
8 39
8 56
8 57
8 58
8 63
8 80
8 84
8 90
8 112
8 113
8 129
8 132
8 149
8 156
8 167
8 171
8 181
8 184
8 189
8 198
8 210
8 217
8 247
8 255
8 280
8 284
8 292
8 293
8 305
8 308
8 310
8 336
8 346
9 23
9 26
9 46
9 62
9 67
9 68
9 71
9 72
9 77
9 106
9 129
9 130
9 132
9 149
9 153
9 195
9 218
9 227
9 238
9 266
9 273
9 282
9 286
9 299
9 306
9 314
9 324
9 325
9 344
10 13
10 25
10 37
10 38
10 47
10 51
10 64
10 71
10 73
10 76
10 85
10 94
10 113
10 130
10 141
10 143
10 149
10 156
10 160
10 163
10 180
10 185
10 213
10 216
10 226
10 236
10 259
10 263
10 266
10 276
10 285
10 297
10 300
10 302
10 312
10 326
10 336
10 341
10 343
10 345
11 33
11 37
11 46
11 50
11 72
11 73
11 88
11 100
11 108
11 109
11 111
11 112
11 114
11 124
11 140
11 166
11 172
11 175
11 178
11 187
11 196
11 200
11 201
11 209
11 213
11 216
11 231
11 256
11 260
11 285
11 295
11 299
11 311
11 326
11 341
11 348
12 14
12 17
12 51
12 58
12 66
12 99
12 102
12 111
12 113
12 114
12 116
12 121
12 140
12 186
12 194
12 208
12 211
12 214
12 218
12 228
12 230
12 252
12 262
12 278
12 280
12 284
12 285
12 291
12 318
12 322
12 326
12 338
12 342
12 347
13 21
13 48
13 54
13 57
13 60
13 87
13 119
13 120
13 122
13 126
13 131
13 158
13 170
13 178
13 180
13 211
13 219
13 228
13 237
13 266
13 277
13 303
13 314
13 346
14 17
14 21
14 22
14 23
14 30
14 33
14 41
14 58
14 65
14 67
14 71
14 73
14 79
14 112
14 117
14 135
14 142
14 159
14 174
14 175
14 176
14 215
14 220
14 232
14 252
14 261
14 279
14 293
14 302
15 25
15 28
15 30
15 63
15 97
15 101
15 106
15 110
15 129
15 141
15 152
15 155
15 158
15 183
15 203
15 206
15 208
15 213
15 219
15 245
15 271
15 273
15 290
15 293
15 294
15 297
15 299
15 302
15 308
15 314
15 337
15 339
15 347
16 30
16 31
16 40
16 49
16 54
16 58
16 61
16 62
16 70
16 73
16 106
16 111
16 119
16 140
16 197
16 203
16 208
16 211
16 225
16 246
16 256
16 259
16 264
16 265
16 282
16 290
16 314
16 322
16 324
16 328
16 333
16 336
17 20
17 23
17 30
17 36
17 41
17 42
17 48
17 52
17 96
17 103
17 108
17 115
17 127
17 133
17 177
17 179
17 183
17 191
17 199
17 218
17 231
17 234
17 242
17 248
17 259
17 263
17 269
17 271
17 272
17 287
17 304
17 312
17 321
17 323
18 22
18 26
18 34
18 63
18 65
18 71
18 73
18 74
18 84
18 92
18 93
18 102
18 109
18 119
18 132
18 150
18 154
18 158
18 160
18 177
18 182
18 189
18 193
18 209
18 213
18 223
18 229
18 275
18 278
18 305
18 312
18 316
18 338
18 346
18 349
19 27
19 28
19 40
19 48
19 60
19 71
19 79
19 81
19 82
19 92
19 101
19 105
19 108
19 113
19 114
19 118
19 125
19 130
19 140
19 147
19 153
19 154
19 159
19 162
19 165
19 192
19 202
19 203
19 204
19 205
19 227
19 237
19 246
19 253
19 255
19 278
19 284
19 312
19 345
19 348
20 30
20 39
20 46
20 51
20 57
20 60
20 72
20 120
20 122
20 137
20 139
20 142
20 189
20 220
20 228
20 250
20 254
20 256
20 283
20 287
20 310
20 311
20 321
20 334
20 343
21 43
21 47
21 53
21 64
21 96
21 102
21 120
21 141
21 144
21 159
21 160
21 199
21 207
21 213
21 214
21 226
21 227
21 234
21 242
21 261
21 262
21 280
21 281
21 301
21 303
21 314
21 316
21 325
21 328
21 343
21 347
22 30
22 47
22 51
22 72
22 87
22 92
22 93
22 96
22 110
22 121
22 168
22 195
22 199
22 207
22 210
22 217
22 230
22 236
22 242
22 245
22 248
22 266
22 267
22 275
22 276
22 277
22 290
22 294
22 301
22 302
22 319
22 327
22 332
22 333
23 34
23 48
23 71
23 82
23 83
23 88
23 102
23 114
23 118
23 119
23 132
23 142
23 162
23 169
23 177
23 186
23 191
23 207
23 227
23 234
23 249
23 263
23 268
23 278
23 279
23 328
23 337
23 345
23 346
23 347
24 52
24 59
24 87
24 95
24 96
24 98
24 107
24 110
24 121
24 127
24 142
24 149
24 160
24 161
24 163
24 166
24 184
24 203
24 208
24 223
24 247
24 251
24 257
24 262
24 270
24 280
24 294
24 306
25 28
25 35
25 42
25 58
25 62
25 70
25 76
25 87
25 93
25 95
25 110
25 135
25 148
25 151
25 174
25 175
25 184
25 189
25 232
25 239
25 264
25 274
25 278
25 283
25 289
25 292
25 304
25 313
25 328
25 336
25 343
26 27
26 28
26 33
26 37
26 46
26 49
26 61
26 74
26 90
26 96
26 105
26 123
26 142
26 144
26 147
26 161
26 166
26 173
26 187
26 197
26 203
26 213
26 214
26 229
26 231
26 236
26 238
26 286
26 291
26 294
26 295
26 325
26 328
26 338
26 339
27 34
27 47
27 50
27 63
27 66
27 83
27 87
27 110
27 117
27 119
27 122
27 131
27 140
27 156
27 165
27 170
27 177
27 178
27 180
27 191
27 193
27 214
27 251
27 257
27 261
27 274
27 303
27 305
27 320
27 330
27 339
27 341
27 342
27 344
27 348
28 42
28 43
28 50
28 58
28 60
28 77
28 79
28 95
28 97
28 100
28 127
28 151
28 157
28 159
28 168
28 170
28 171
28 186
28 201
28 222
28 231
28 244
28 256
28 276
28 291
28 299
28 300
28 303
28 315
28 322
28 324
28 334
28 342
28 343
28 345
28 347
29 37
29 40
29 48
29 62
29 64
29 74
29 80
29 100
29 127
29 150
29 151
29 156
29 164
29 169
29 171
29 187
29 200
29 204
29 205
29 209
29 224
29 227
29 230
29 232
29 244
29 255
29 266
29 267
29 271
29 289
29 293
29 310
30 46
30 53
30 67
30 86
30 89
30 95
30 100
30 105
30 109
30 113
30 116
30 125
30 128
30 129
30 140
30 152
30 154
30 159
30 164
30 165
30 171
30 172
30 173
30 178
30 179
30 192
30 198
30 209
30 230
30 233
30 247
30 248
30 288
30 292
30 304
30 313
30 324
30 330
30 331
30 335
30 336
30 338
30 346
30 347
30 348
31 77
31 89
31 97
31 104
31 115
31 123
31 130
31 131
31 134
31 164
31 170
31 198
31 200
31 214
31 215
31 223
31 224
31 241
31 245
31 254
31 264
31 275
31 277
31 281
31 284
31 288
31 297
31 311
31 323
32 34
32 35
32 36
32 45
32 46
32 49
32 55
32 56
32 74
32 78
32 98
32 99
32 100
32 119
32 122
32 140
32 151
32 166
32 171
32 172
32 182
32 183
32 187
32 191
32 209
32 222
32 231
32 232
32 236
32 251
32 256
32 260
32 288
32 292
32 294
32 317
32 327
32 333
32 336
33 46
33 53
33 54
33 66
33 74
33 87
33 90
33 110
33 115
33 118
33 129
33 151
33 161
33 168
33 178
33 188
33 192
33 197
33 207
33 220
33 221
33 224
33 235
33 244
33 246
33 247
33 263
33 265
33 283
33 285
33 293
33 294
33 300
33 304
33 320
33 322
33 331
33 333
33 341
34 43
34 46
34 47
34 50
34 59
34 76
34 85
34 109
34 133
34 134
34 150
34 173
34 195
34 197
34 200
34 212
34 215
34 223
34 245
34 248
34 271
34 278
34 321
34 327
34 328
34 329
34 344
35 46
35 73
35 82
35 86
35 90
35 102
35 112
35 113
35 128
35 131
35 134
35 137
35 144
35 155
35 168
35 174
35 185
35 186
35 199
35 207
35 221
35 224
35 233
35 244
35 249
35 287
35 288
35 291
35 295
36 46
36 52
36 76
36 82
36 96
36 104
36 123
36 127
36 134
36 140
36 184
36 185
36 198
36 205
36 210
36 214
36 224
36 228
36 232
36 238
36 258
36 267
36 270
36 295
36 304
36 316
36 326
36 348
37 41
37 46
37 78
37 89
37 92
37 97
37 98
37 108
37 114
37 139
37 143
37 144
37 155
37 158
37 159
37 164
37 166
37 186
37 222
37 233
37 245
37 263
37 271
37 274
37 278
37 279
37 280
37 281
37 290
37 297
37 298
37 300
37 321
37 334
37 344
37 349
38 61
38 80
38 82
38 94
38 115
38 130
38 156
38 164
38 179
38 191
38 193
38 202
38 207
38 225
38 243
38 244
38 248
38 252
38 256
38 259
38 264
38 269
38 271
38 279
38 280
38 285
38 298
38 318
38 332
38 340
38 342
38 346
39 47
39 48
39 52
39 54
39 65
39 70
39 71
39 87
39 116
39 119
39 121
39 134
39 143
39 144
39 149
39 173
39 179
39 184
39 188
39 204
39 214
39 237
39 241
39 244
39 248
39 263
39 302
39 310
39 312
39 314
39 324
40 52
40 67
40 77
40 79
40 88
40 100
40 119
40 143
40 147
40 149
40 152
40 153
40 169
40 176
40 177
40 201
40 226
40 235
40 241
40 245
40 248
40 257
40 267
40 277
40 297
40 312
40 322
40 327
40 328
40 338
41 47
41 52
41 56
41 99
41 103
41 104
41 106
41 110
41 131
41 142
41 144
41 148
41 152
41 168
41 175
41 176
41 182
41 189
41 190
41 195
41 197
41 200
41 219
41 223
41 228
41 232
41 239
41 248
41 254
41 280
41 283
41 293
41 295
41 301
41 339
41 343
41 346
42 46
42 50
42 52
42 65
42 66
42 68
42 91
42 116
42 118
42 134
42 147
42 148
42 161
42 203
42 207
42 228
42 237
42 239
42 259
42 273
42 276
42 282
42 284
42 298
42 336
43 49
43 61
43 71
43 80
43 82
43 91
43 102
43 107
43 108
43 114
43 116
43 119
43 128
43 142
43 172
43 173
43 181
43 189
43 213
43 217
43 222
43 228
43 244
43 248
43 264
43 318
43 324
43 346
43 347
44 101
44 106
44 115
44 120
44 122
44 153
44 180
44 181
44 200
44 224
44 226
44 231
44 246
44 252
44 266
44 267
44 279
44 284
44 333
45 57
45 75
45 103
45 110
45 115
45 140
45 149
45 153
45 155
45 171
45 184
45 197
45 203
45 204
45 214
45 222
45 239
45 244
45 255
45 259
45 263
45 291
45 298
45 311
45 319
45 320
45 321
45 331
46 64
46 69
46 73
46 87
46 128
46 146
46 151
46 175
46 189
46 206
46 211
46 214
46 218
46 229
46 233
46 235
46 252
46 253
46 254
46 264
46 269
46 276
46 288
46 296
46 304
46 320
46 321
46 330
47 78
47 82
47 92
47 108
47 143
47 175
47 183
47 187
47 189
47 206
47 210
47 228
47 236
47 238
47 252
47 254
47 256
47 264
47 265
47 270
47 279
47 292
47 303
47 306
47 318
47 323
47 325
47 347
48 68
48 70
48 79
48 87
48 105
48 120
48 131
48 141
48 151
48 154
48 155
48 161
48 164
48 177
48 209
48 212
48 227
48 228
48 233
48 235
48 242
48 250
48 265
48 267
48 269
48 276
48 283
48 298
48 303
48 317
48 321
48 323
48 329
48 348
49 54
49 62
49 76
49 97
49 98
49 101
49 104
49 127
49 134
49 157
49 162
49 163
49 170
49 173
49 182
49 190
49 203
49 235
49 238
49 249
49 251
49 254
49 255
49 256
49 257
49 287
49 303
49 307
49 312
49 316
49 318
49 320
49 324
49 328
49 330
49 340
50 62
50 78
50 92
50 105
50 113
50 121
50 122
50 123
50 130
50 160
50 161
50 162
50 163
50 167
50 176
50 185
50 200
50 206
50 232
50 241
50 246
50 248
50 255
50 273
50 278
50 281
50 283
50 285
50 288
50 300
50 310
50 323
50 325
50 330
50 343
50 349
51 58
51 76
51 91
51 98
51 102
51 133
51 136
51 161
51 167
51 173
51 190
51 194
51 206
51 209
51 218
51 226
51 229
51 245
51 246
51 263
51 278
51 296
51 325
51 327
51 337
51 345
51 349
52 53
52 54
52 60
52 61
52 85
52 113
52 125
52 133
52 170
52 182
52 187
52 190
52 197
52 198
52 200
52 212
52 218
52 226
52 235
52 240
52 241
52 246
52 248
52 250
52 260
52 265
52 272
52 289
52 300
52 319
52 322
52 332
53 58
53 60
53 67
53 76
53 78
53 80
53 83
53 99
53 103
53 111
53 121
53 127
53 138
53 139
53 142
53 151
53 156
53 158
53 160
53 169
53 170
53 181
53 185
53 197
53 207
53 213
53 247
53 252
53 259
53 274
53 275
53 286
53 305
53 310
53 321
53 328
53 347
54 56
54 90
54 94
54 96
54 106
54 116
54 132
54 133
54 137
54 150
54 151
54 154
54 168
54 181
54 186
54 202
54 203
54 223
54 227
54 231
54 252
54 272
54 287
54 288
54 289
54 297
54 302
54 306
54 315
54 320
54 326
54 334
54 339
54 340
54 344
54 348
55 66
55 71
55 74
55 75
55 90
55 124
55 129
55 130
55 137
55 148
55 165
55 177
55 179
55 180
55 187
55 202
55 207
55 225
55 243
55 250
55 254
55 282
55 292
55 309
55 310
55 316
55 322
55 334
55 340
56 81
56 91
56 110
56 117
56 126
56 133
56 140
56 141
56 144
56 163
56 168
56 169
56 174
56 175
56 188
56 192
56 208
56 212
56 228
56 234
56 236
56 239
56 253
56 255
56 265
56 267
56 269
56 276
56 283
56 288
56 300
56 301
56 304
56 310
57 62
57 81
57 82
57 102
57 103
57 108
57 117
57 119
57 122
57 136
57 142
57 143
57 153
57 160
57 175
57 185
57 191
57 204
57 205
57 207
57 210
57 211
57 218
57 229
57 241
57 250
57 274
57 279
57 295
57 300
57 307
57 312
57 316
57 345
58 62
58 63
58 92
58 113
58 117
58 152
58 169
58 173
58 177
58 182
58 196
58 220
58 226
58 228
58 231
58 238
58 243
58 245
58 261
58 263
58 288
58 298
58 300
58 308
59 61
59 75
59 86
59 88
59 89
59 94
59 115
59 117
59 123
59 126
59 133
59 134
59 140
59 147
59 152
59 168
59 189
59 208
59 214
59 223
59 232
59 249
59 258
59 269
59 293
59 303
59 309
59 310
59 314
59 318
59 321
59 322
59 328
60 68
60 70
60 86
60 94
60 120
60 121
60 127
60 131
60 132
60 145
60 153
60 154
60 161
60 171
60 180
60 187
60 189
60 195
60 222
60 225
60 230
60 241
60 250
60 253
60 270
60 274
60 293
60 296
60 317
61 78
61 82
61 87
61 88
61 89
61 96
61 99
61 155
61 176
61 208
61 211
61 227
61 230
61 231
61 232
61 241
61 257
61 261
61 285
61 296
61 303
61 306
61 313
61 316
61 337
61 339
61 340
61 344
61 345
62 78
62 79
62 83
62 84
62 111
62 117
62 125
62 126
62 128
62 143
62 153
62 164
62 166
62 189
62 212
62 217
62 230
62 231
62 239
62 248
62 254
62 264
62 266
62 285
62 300
62 301
62 302
62 325
62 326
62 339
62 346
63 65
63 66
63 74
63 87
63 113
63 114
63 125
63 133
63 139
63 165
63 178
63 183
63 199
63 203
63 205
63 213
63 215
63 217
63 222
63 231
63 243
63 258
63 264
63 267
63 282
63 287
63 312
63 314
63 326
63 331
64 65
64 78
64 82
64 112
64 114
64 137
64 147
64 151
64 166
64 169
64 177
64 181
64 203
64 209
64 213
64 238
64 241
64 257
64 260
64 266
64 276
64 291
64 300
64 304
64 323
64 330
64 344
65 79
65 84
65 93
65 108
65 112
65 117
65 119
65 125
65 127
65 141
65 144
65 151
65 159
65 160
65 176
65 179
65 194
65 209
65 217
65 232
65 246
65 250
65 261
65 263
65 284
65 285
65 286
65 287
65 301
65 303
65 329
65 334
66 71
66 77
66 88
66 97
66 104
66 105
66 116
66 120
66 153
66 163
66 167
66 174
66 209
66 215
66 219
66 232
66 233
66 241
66 255
66 282
66 293
66 294
66 342
67 80
67 85
67 98
67 99
67 108
67 122
67 123
67 129
67 131
67 132
67 154
67 157
67 160
67 164
67 181
67 188
67 193
67 195
67 196
67 198
67 200
67 212
67 219
67 246
67 249
67 253
67 255
67 270
67 271
67 280
67 288
67 289
67 302
67 303
67 304
67 313
67 322
67 323
67 325
67 333
67 340
67 342
67 347
68 72
68 74
68 76
68 80
68 87
68 88
68 104
68 108
68 117
68 118
68 123
68 127
68 128
68 133
68 139
68 142
68 143
68 146
68 156
68 168
68 178
68 184
68 196
68 199
68 200
68 222
68 224
68 229
68 247
68 253
68 271
68 275
68 279
68 289
68 291
68 292
68 307
68 310
68 314
68 326
68 340
68 349
69 99
69 142
69 151
69 170
69 192
69 219
69 242
69 244
69 252
69 258
69 278
69 293
69 301
69 314
69 324
69 328
69 349
70 72
70 93
70 102
70 108
70 114
70 115
70 123
70 139
70 142
70 152
70 154
70 227
70 232
70 233
70 235
70 239
70 250
70 252
70 266
70 271
70 284
70 291
70 295
70 296
70 301
70 314
70 323
70 325
70 330
70 333
70 341
70 342
71 76
71 86
71 112
71 120
71 121
71 133
71 145
71 150
71 153
71 160
71 166
71 168
71 173
71 176
71 195
71 197
71 198
71 199
71 205
71 216
71 236
71 240
71 249
71 264
71 275
71 276
71 283
71 295
71 315
71 319
71 323
71 326
71 329
71 330
71 340
72 77
72 94
72 101
72 117
72 131
72 154
72 170
72 175
72 177
72 180
72 192
72 204
72 208
72 217
72 237
72 242
72 254
72 257
72 278
72 281
72 284
72 295
72 315
72 325
72 335
72 349
73 77
73 83
73 128
73 132
73 160
73 163
73 168
73 172
73 197
73 201
73 228
73 230
73 231
73 236
73 256
73 278
73 279
73 283
73 289
73 308
73 315
73 317
73 326
73 338
74 81
74 97
74 111
74 162
74 164
74 167
74 169
74 177
74 178
74 205
74 208
74 212
74 222
74 238
74 249
74 261
74 265
74 291
74 297
74 302
74 312
74 339
74 348
75 76
75 79
75 84
75 99
75 104
75 114
75 134
75 137
75 140
75 201
75 203
75 215
75 227
75 237
75 244
75 265
75 267
75 290
75 294
75 300
75 302
75 305
75 313
75 325
75 326
75 338
75 340
76 83
76 84
76 87
76 94
76 100
76 111
76 131
76 132
76 142
76 150
76 161
76 162
76 164
76 178
76 186
76 208
76 227
76 229
76 231
76 262
76 271
76 272
76 283
76 287
76 308
76 319
76 327
76 332
76 344
77 89
77 94
77 134
77 143
77 146
77 150
77 160
77 176
77 182
77 183
77 184
77 190
77 210
77 215
77 219
77 224
77 225
77 237
77 240
77 250
77 252
77 265
77 266
77 268
77 276
77 278
77 291
77 308
77 315
77 316
77 324
77 328
77 329
77 335
77 336
77 339
77 340
77 342
77 347
77 348
78 79
78 93
78 99
78 104
78 133
78 166
78 168
78 175
78 179
78 181
78 184
78 186
78 207
78 220
78 228
78 240
78 256
78 260
78 264
78 266
78 270
78 273
78 281
78 283
78 289
78 290
78 291
78 296
78 306
78 307
78 314
78 345
78 346
78 349
79 88
79 93
79 104
79 125
79 129
79 134
79 139
79 150
79 160
79 180
79 187
79 201
79 206
79 208
79 209
79 218
79 221
79 241
79 242
79 243
79 248
79 268
79 280
79 300
79 321
79 337
79 340
79 342
79 343
79 344
79 345
79 346
80 92
80 104
80 113
80 132
80 144
80 161
80 171
80 179
80 182
80 185
80 201
80 217
80 234
80 259
80 279
80 280
80 286
80 298
80 306
80 307
80 318
80 320
80 322
80 326
80 329
80 333
80 341
81 93
81 94
81 98
81 99
81 100
81 102
81 105
81 110
81 118
81 119
81 148
81 150
81 172
81 187
81 204
81 237
81 265
81 271
81 273
81 280
81 287
81 293
81 296
81 313
81 329
81 332
81 344
81 348
82 89
82 125
82 148
82 153
82 170
82 182
82 189
82 198
82 202
82 209
82 212
82 217
82 229
82 235
82 251
82 272
82 281
82 313
82 319
82 328
82 329
82 342
82 345
82 347
83 89
83 91
83 95
83 117
83 118
83 120
83 126
83 130
83 142
83 144
83 162
83 167
83 197
83 214
83 273
83 274
83 303
83 318
84 86
84 116
84 123
84 128
84 140
84 144
84 148
84 156
84 188
84 198
84 213
84 221
84 240
84 244
84 269
84 290
84 294
84 309
84 312
84 315
84 322
84 324
84 333
84 339
84 346
85 86
85 115
85 142
85 152
85 167
85 169
85 182
85 195
85 245
85 255
85 274
85 276
85 278
85 290
85 293
85 296
85 298
85 306
85 338
86 96
86 98
86 102
86 104
86 105
86 138
86 144
86 149
86 150
86 163
86 164
86 186
86 200
86 229
86 230
86 247
86 250
86 253
86 260
86 284
86 292
86 338
86 340
86 341
86 348
86 349
87 95
87 99
87 104
87 109
87 114
87 141
87 147
87 155
87 158
87 160
87 162
87 167
87 169
87 170
87 178
87 193
87 208
87 212
87 218
87 223
87 233
87 244
87 256
87 268
87 274
87 297
87 298
87 321
87 331
87 339
88 94
88 97
88 101
88 112
88 116
88 129
88 148
88 150
88 157
88 173
88 180
88 189
88 192
88 199
88 220
88 221
88 235
88 237
88 250
88 252
88 265
88 269
88 277
88 295
88 319
88 320
88 328
88 332
88 339
89 95
89 100
89 119
89 125
89 141
89 144
89 159
89 160
89 166
89 199
89 204
89 206
89 209
89 216
89 218
89 244
89 255
89 260
89 261
89 270
89 283
89 286
89 293
89 297
89 301
89 317
89 329
90 99
90 108
90 117
90 124
90 134
90 136
90 145
90 147
90 152
90 158
90 172
90 181
90 201
90 229
90 232
90 236
90 239
90 293
90 304
90 320
90 328
90 331
90 339
91 92
91 99
91 110
91 114
91 128
91 134
91 137
91 144
91 189
91 194
91 232
91 233
91 267
91 281
91 289
91 303
91 335
91 341
91 342
91 347
92 101
92 104
92 123
92 142
92 160
92 176
92 189
92 198
92 201
92 205
92 206
92 233
92 237
92 242
92 249
92 271
92 281
92 307
92 311
92 321
92 328
92 331
92 344
93 98
93 133
93 139
93 147
93 158
93 162
93 171
93 180
93 185
93 192
93 197
93 199
93 212
93 226
93 227
93 228
93 238
93 248
93 252
93 257
93 268
93 275
93 277
93 280
93 292
93 316
93 325
93 334
93 349
94 102
94 105
94 138
94 140
94 173
94 175
94 178
94 181
94 187
94 190
94 198
94 199
94 201
94 210
94 227
94 229
94 241
94 278
94 279
94 301
94 302
94 308
94 321
94 322
95 101
95 114
95 118
95 121
95 131
95 156
95 176
95 192
95 199
95 208
95 215
95 226
95 232
95 233
95 236
95 276
95 283
95 289
95 293
95 295
95 300
95 307
95 327
95 336
95 339
95 340
95 341
95 347
96 113
96 117
96 122
96 171
96 185
96 188
96 200
96 219
96 246
96 254
96 279
96 281
96 306
96 329
97 98
97 105
97 109
97 125
97 170
97 182
97 186
97 191
97 198
97 211
97 231
97 237
97 240
97 251
97 256
97 263
97 273
97 280
97 289
97 305
97 309
97 311
97 315
98 99
98 108
98 110
98 113
98 116
98 121
98 142
98 186
98 223
98 232
98 251
98 274
98 283
98 287
98 288
98 308
98 309
98 314
98 331
98 333
98 337
98 341
98 349
99 121
99 135
99 143
99 181
99 210
99 214
99 215
99 216
99 217
99 219
99 225
99 242
99 257
99 261
99 262
99 274
99 280
99 286
99 294
99 303
99 306
99 319
99 340
99 343
100 102
100 105
100 120
100 122
100 130
100 134
100 155
100 156
100 161
100 174
100 189
100 191
100 197
100 201
100 202
100 238
100 241
100 243
100 248
100 259
100 268
100 274
100 283
100 284
100 294
100 296
100 312
100 318
100 326
100 332
100 335
100 346
100 348
101 102
101 128
101 130
101 132
101 145
101 175
101 184
101 199
101 213
101 248
101 257
101 263
101 265
101 273
101 291
101 293
101 297
101 306
101 307
101 310
101 326
101 334
101 345
102 103
102 108
102 120
102 136
102 145
102 151
102 152
102 158
102 167
102 220
102 235
102 238
102 240
102 266
102 274
102 276
102 285
102 308
102 332
102 333
102 336
102 337
102 342
103 109
103 127
103 133
103 156
103 157
103 168
103 169
103 175
103 179
103 183
103 202
103 244
103 248
103 276
103 287
103 297
103 301
103 317
103 328
103 330
103 344
103 345
104 125
104 147
104 149
104 154
104 164
104 169
104 171
104 202
104 208
104 253
104 255
104 272
104 275
104 282
104 287
104 288
104 296
104 302
104 305
104 311
104 330
104 347
105 106
105 112
105 117
105 151
105 158
105 164
105 173
105 201
105 207
105 217
105 225
105 240
105 252
105 272
105 273
105 276
105 289
105 316
105 317
105 318
105 323
105 328
105 330
105 337
105 349
106 114
106 127
106 128
106 133
106 138
106 143
106 148
106 154
106 161
106 179
106 184
106 186
106 192
106 196
106 199
106 205
106 211
106 214
106 272
106 319
106 320
106 321
106 326
106 330
106 342
106 348
107 117
107 119
107 126
107 147
107 151
107 155
107 167
107 175
107 176
107 184
107 189
107 204
107 210
107 223
107 227
107 236
107 237
107 248
107 253
107 268
107 271
107 283
107 286
107 295
107 312
107 319
107 337
108 137
108 145
108 154
108 164
108 173
108 175
108 186
108 188
108 194
108 196
108 197
108 225
108 235
108 242
108 246
108 255
108 269
108 279
108 284
108 302
108 306
108 311
108 317
108 318
109 114
109 120
109 135
109 140
109 143
109 149
109 177
109 178
109 179
109 183
109 197
109 198
109 207
109 212
109 214
109 261
109 262
109 263
109 266
109 273
109 287
109 294
109 296
109 306
109 321
109 338
109 341
110 126
110 147
110 155
110 161
110 169
110 177
110 183
110 208
110 219
110 223
110 229
110 247
110 250
110 259
110 261
110 283
110 287
110 290
110 297
110 304
110 336
110 340
111 117
111 120
111 122
111 139
111 145
111 157
111 162
111 164
111 176
111 215
111 247
111 265
111 278
111 286
111 294
111 299
111 300
111 301
111 322
111 329
111 343
112 116
112 119
112 122
112 137
112 140
112 142
112 166
112 188
112 192
112 193
112 195
112 212
112 224
112 250
112 272
112 324
112 325
112 326
112 333
112 336
112 347
113 124
113 127
113 170
113 173
113 177
113 186
113 187
113 196
113 203
113 209
113 214
113 219
113 230
113 240
113 244
113 247
113 278
113 282
113 286
113 296
113 337
113 339
113 345
113 347
114 121
114 141
114 151
114 153
114 154
114 165
114 170
114 177
114 187
114 190
114 200
114 206
114 208
114 209
114 220
114 242
114 251
114 268
114 270
114 271
114 278
114 299
114 331
114 336
115 130
115 148
115 152
115 164
115 174
115 179
115 183
115 205
115 220
115 237
115 239
115 241
115 243
115 247
115 254
115 259
115 283
115 288
115 306
115 325
115 331
115 348
116 119
116 151
116 157
116 163
116 164
116 183
116 193
116 199
116 218
116 231
116 239
116 242
116 253
116 255
116 276
116 293
116 296
116 298
116 311
116 312
116 315
116 318
116 321
116 331
116 335
117 134
117 150
117 156
117 157
117 162
117 166
117 178
117 180
117 181
117 205
117 236
117 260
117 276
117 287
117 293
117 296
117 315
117 326
118 120
118 137
118 138
118 148
118 151
118 154
118 156
118 167
118 173
118 186
118 187
118 203
118 226
118 233
118 236
118 246
118 249
118 262
118 294
118 295
118 303
118 306
118 307
118 308
118 309
118 316
118 317
118 329
119 120
119 144
119 145
119 148
119 172
119 177
119 187
119 189
119 196
119 202
119 215
119 222
119 226
119 229
119 257
119 262
119 284
119 290
119 298
119 307
119 314
119 319
119 335
119 341
119 342
119 347
119 349
120 122
120 127
120 128
120 132
120 139
120 143
120 162
120 168
120 189
120 191
120 194
120 212
120 218
120 222
120 231
120 250
120 262
120 272
120 276
120 282
120 289
120 293
120 300
120 308
120 329
120 338
120 342
120 347
121 122
121 127
121 163
121 175
121 177
121 183
121 190
121 192
121 201
121 220
121 224
121 225
121 227
121 230
121 240
121 242
121 256
121 257
121 263
121 270
121 282
121 304
121 320
121 341
122 128
122 134
122 144
122 155
122 168
122 176
122 179
122 208
122 237
122 245
122 253
122 262
122 269
122 278
122 287
122 288
122 334
122 342
122 344
123 130
123 134
123 146
123 166
123 170
123 191
123 200
123 201
123 202
123 239
123 241
123 247
123 248
123 257
123 260
123 265
123 273
123 276
123 297
123 325
123 328
123 341
123 344
123 345
123 349
124 142
124 150
124 165
124 173
124 220
124 223
124 224
124 244
124 248
124 273
124 275
124 277
124 290
124 300
124 309
124 324
124 332
124 346
125 128
125 132
125 136
125 140
125 144
125 151
125 170
125 174
125 175
125 191
125 207
125 212
125 221
125 226
125 238
125 242
125 244
125 249
125 254
125 263
125 266
125 269
125 274
125 276
125 289
125 300
125 308
125 318
125 324
125 336
126 138
126 145
126 154
126 191
126 199
126 201
126 204
126 226
126 238
126 253
126 264
126 266
126 284
126 290
126 295
126 307
126 308
126 335
126 339
126 341
126 344
127 141
127 150
127 168
127 177
127 184
127 197
127 198
127 208
127 210
127 225
127 245
127 248
127 290
127 292
127 295
127 297
127 312
127 313
127 335
127 349
128 142
128 186
128 196
128 232
128 240
128 256
128 259
128 271
128 278
128 289
128 302
128 329
128 339
128 347
129 139
129 163
129 175
129 183
129 184
129 194
129 204
129 208
129 214
129 219
129 221
129 235
129 278
129 291
129 297
129 315
129 316
129 329
129 330
130 131
130 140
130 167
130 172
130 176
130 180
130 185
130 191
130 192
130 194
130 196
130 204
130 205
130 207
130 227
130 240
130 262
130 277
130 281
130 286
130 289
130 304
130 313
130 323
131 153
131 169
131 176
131 186
131 190
131 199
131 204
131 211
131 215
131 216
131 221
131 225
131 234
131 253
131 259
131 264
131 272
131 274
131 280
131 283
131 291
131 311
131 313
131 324
132 134
132 137
132 148
132 171
132 180
132 185
132 192
132 206
132 208
132 211
132 218
132 224
132 225
132 239
132 244
132 286
132 293
132 300
132 311
132 317
132 342
132 347
133 134
133 157
133 163
133 166
133 170
133 194
133 224
133 234
133 237
133 238
133 243
133 253
133 281
133 286
133 295
133 302
134 136
134 137
134 152
134 154
134 174
134 176
134 191
134 193
134 209
134 213
134 218
134 220
134 244
134 245
134 250
134 260
134 286
134 287
134 291
134 303
134 304
134 307
134 311
134 315
134 321
134 328
134 338
135 141
135 150
135 165
135 171
135 196
135 205
135 214
135 221
135 223
135 234
135 253
135 269
135 275
135 278
135 279
135 313
135 314
135 317
135 318
135 319
135 327
135 337
135 344
135 345
136 147
136 149
136 150
136 152
136 180
136 182
136 184
136 189
136 193
136 206
136 211
136 212
136 219
136 230
136 240
136 241
136 253
136 255
136 257
136 261
136 262
136 268
136 273
136 276
136 281
136 292
136 316
136 318
136 321
136 323
136 345
137 156
137 169
137 170
137 184
137 193
137 195
137 218
137 219
137 228
137 229
137 231
137 233
137 262
137 290
137 303
137 315
137 329
137 331
137 334
137 343
137 344
138 147
138 159
138 163
138 178
138 196
138 199
138 200
138 204
138 212
138 217
138 231
138 237
138 240
138 252
138 259
138 266
138 279
138 290
138 307
138 326
138 329
138 337
138 343
139 173
139 180
139 182
139 184
139 194
139 218
139 229
139 231
139 245
139 247
139 257
139 261
139 262
139 296
139 306
139 308
139 320
140 149
140 151
140 176
140 199
140 216
140 221
140 223
140 233
140 237
140 242
140 243
140 251
140 264
140 278
140 283
140 289
140 302
140 346
141 142
141 144
141 145
141 164
141 172
141 177
141 179
141 183
141 217
141 238
141 241
141 250
141 259
141 273
141 277
141 296
141 297
141 311
141 325
141 329
141 330
142 166
142 169
142 176
142 186
142 198
142 235
142 264
142 269
142 319
142 328
142 332
143 150
143 157
143 170
143 184
143 197
143 204
143 220
143 236
143 245
143 261
143 264
143 270
143 273
143 285
143 294
143 303
143 305
143 313
143 315
143 316
143 318
143 325
143 329
143 331
143 339
143 342
143 344
143 348
143 349
144 146
144 150
144 159
144 165
144 177
144 180
144 197
144 212
144 227
144 229
144 230
144 234
144 235
144 247
144 255
144 272
144 277
144 285
144 343
144 349
145 147
145 168
145 172
145 190
145 207
145 232
145 249
145 258
145 263
145 286
145 305
145 322
145 327
145 334
145 338
145 343
145 345
146 158
146 180
146 187
146 193
146 227
146 251
146 282
146 305
146 315
146 316
146 322
146 325
146 335
146 346
146 347
146 348
147 163
147 167
147 192
147 195
147 200
147 204
147 213
147 217
147 219
147 247
147 267
147 277
147 278
147 296
147 305
147 307
147 311
147 312
147 315
147 338
147 345
147 349
148 162
148 169
148 174
148 175
148 183
148 184
148 208
148 227
148 229
148 243
148 253
148 264
148 277
148 281
148 284
148 285
148 287
148 305
148 306
148 308
148 310
148 316
148 318
149 169
149 174
149 187
149 214
149 222
149 235
149 241
149 244
149 253
149 266
149 267
149 269
149 280
149 295
149 302
149 321
149 323
149 331
149 337
149 344
150 151
150 176
150 199
150 205
150 214
150 218
150 232
150 248
150 270
150 284
150 297
150 307
150 327
150 337
150 339
151 153
151 168
151 172
151 200
151 212
151 220
151 222
151 224
151 236
151 263
151 270
151 283
151 300
151 303
151 308
151 346
152 155
152 160
152 176
152 186
152 188
152 189
152 190
152 221
152 223
152 224
152 242
152 252
152 266
152 271
152 277
152 278
152 280
152 286
152 299
152 313
152 336
153 156
153 162
153 174
153 178
153 181
153 199
153 203
153 207
153 217
153 220
153 250
153 252
153 254
153 256
153 261
153 265
153 267
153 292
153 313
153 323
153 342
153 344
154 162
154 168
154 186
154 234
154 245
154 246
154 247
154 250
154 255
154 264
154 286
154 319
154 331
154 341
155 157
155 159
155 167
155 196
155 201
155 207
155 210
155 218
155 239
155 249
155 251
155 263
155 277
155 280
155 283
155 288
155 298
155 301
155 322
155 336
155 339
155 345
155 349
156 179
156 181
156 187
156 196
156 215
156 234
156 236
156 238
156 239
156 248
156 254
156 255
156 265
156 267
156 271
156 284
156 287
156 289
156 293
156 305
156 312
156 334
156 346
157 163
157 164
157 166
157 180
157 189
157 197
157 199
157 212
157 217
157 232
157 238
157 253
157 259
157 274
157 293
157 294
157 297
157 304
157 306
157 314
157 321
157 342
158 169
158 174
158 201
158 232
158 237
158 242
158 256
158 274
158 296
158 313
158 315
158 317
158 318
158 335
158 338
159 180
159 184
159 191
159 196
159 213
159 216
159 222
159 238
159 240
159 242
159 248
159 270
159 272
159 274
159 284
159 296
159 297
159 312
159 327
159 329
159 333
160 170
160 175
160 182
160 215
160 218
160 219
160 257
160 272
160 275
160 291
160 308
160 323
160 329
160 335
160 339
160 346
160 349
161 166
161 167
161 170
161 178
161 187
161 203
161 204
161 217
161 218
161 223
161 252
161 254
161 266
161 277
161 284
161 285
161 286
161 289
161 292
161 308
161 339
161 347
162 165
162 189
162 223
162 225
162 231
162 237
162 247
162 249
162 266
162 276
162 281
162 285
162 293
162 305
162 307
162 314
162 316
162 326
162 327
162 328
162 347
163 186
163 188
163 213
163 220
163 224
163 238
163 246
163 250
163 254
163 257
163 263
163 293
163 297
163 298
163 301
163 314
163 320
163 324
163 333
163 335
163 339
163 348
164 170
164 183
164 187
164 195
164 196
164 215
164 233
164 235
164 239
164 243
164 247
164 259
164 294
164 306
164 309
164 311
164 318
164 327
164 330
164 334
164 337
164 342
164 346
165 169
165 188
165 195
165 204
165 211
165 233
165 267
165 272
165 282
165 300
165 306
165 311
165 316
165 322
165 342
165 348
165 349
166 180
166 186
166 191
166 212
166 242
166 253
166 263
166 268
166 278
166 282
166 285
166 290
166 292
166 301
166 305
166 326
166 329
166 330
166 333
166 334
166 335
166 343
166 345
166 346
167 169
167 171
167 180
167 218
167 221
167 228
167 230
167 263
167 270
167 271
167 282
167 284
167 288
167 293
167 295
167 336
167 344
168 177
168 187
168 214
168 245
168 248
168 252
168 259
168 262
168 297
168 301
168 321
168 324
168 327
168 341
168 348
169 177
169 190
169 205
169 206
169 243
169 249
169 251
169 254
169 255
169 260
169 269
169 271
169 282
169 300
169 309
169 316
169 319
170 191
170 219
170 229
170 232
170 242
170 246
170 274
170 285
170 287
170 294
170 295
170 296
170 304
170 309
170 335
170 337
171 181
171 186
171 192
171 205
171 207
171 208
171 211
171 221
171 226
171 234
171 240
171 244
171 248
171 258
171 275
171 279
171 283
171 296
171 303
171 306
171 317
171 340
171 345
172 180
172 229
172 232
172 237
172 238
172 250
172 252
172 260
172 264
172 270
172 289
172 303
172 314
172 317
172 349
173 192
173 213
173 240
173 252
173 263
173 272
173 275
173 282
173 305
173 306
173 307
173 308
173 315
173 317
173 320
174 180
174 192
174 211
174 212
174 215
174 232
174 242
174 247
174 248
174 258
174 269
174 272
174 317
174 320
174 323
174 332
174 345
175 180
175 188
175 189
175 197
175 203
175 211
175 252
175 254
175 267
175 280
175 288
175 293
175 294
175 305
175 322
175 336
175 346
176 185
176 202
176 212
176 220
176 227
176 234
176 242
176 246
176 258
176 282
176 283
176 293
176 299
176 314
176 316
176 317
176 324
176 343
176 344
176 345
177 206
177 212
177 233
177 237
177 240
177 254
177 274
177 286
177 295
177 297
177 310
177 312
177 315
177 323
177 326
177 347
178 180
178 181
178 197
178 200
178 216
178 219
178 225
178 235
178 251
178 256
178 259
178 277
178 287
178 293
178 296
178 297
178 321
178 322
178 331
178 337
178 339
178 344
178 347
178 348
179 180
179 193
179 196
179 202
179 206
179 208
179 210
179 217
179 218
179 219
179 228
179 233
179 238
179 239
179 253
179 266
179 278
179 280
179 287
179 290
179 313
179 317
179 331
179 342
179 343
180 187
180 201
180 232
180 242
180 252
180 258
180 264
180 265
180 279
180 310
180 338
181 194
181 204
181 206
181 219
181 228
181 236
181 254
181 268
181 276
181 277
181 281
181 282
181 289
181 301
181 303
181 312
182 185
182 199
182 225
182 233
182 239
182 245
182 255
182 275
182 284
182 286
182 318
182 325
182 335
182 342
183 186
183 198
183 202
183 209
183 214
183 217
183 223
183 224
183 227
183 240
183 245
183 256
183 276
183 277
183 292
183 309
183 334
183 347
184 187
184 196
184 207
184 218
184 227
184 232
184 235
184 238
184 247
184 249
184 282
184 314
184 322
184 336
184 344
184 349
185 192
185 193
185 196
185 208
185 217
185 220
185 223
185 225
185 228
185 241
185 271
185 272
185 278
185 314
185 319
185 327
185 328
185 341
186 187
186 199
186 203
186 229
186 238
186 250
186 256
186 258
186 268
186 277
186 314
186 323
186 336
186 347
187 199
187 201
187 224
187 226
187 229
187 237
187 243
187 247
187 265
187 266
187 278
187 280
187 328
187 335
187 346
188 189
188 198
188 205
188 217
188 223
188 229
188 236
188 245
188 247
188 258
188 265
188 273
188 298
188 332
188 334
188 340
188 344
189 193
189 195
189 197
189 198
189 202
189 210
189 212
189 221
189 222
189 227
189 233
189 234
189 236
189 275
189 276
189 278
189 279
189 286
189 287
189 304
189 313
189 325
189 341
190 198
190 210
190 213
190 214
190 218
190 232
190 240
190 241
190 248
190 275
190 283
190 291
190 297
190 308
190 310
190 314
190 316
190 335
190 342
191 192
191 194
191 220
191 228
191 230
191 232
191 239
191 247
191 248
191 263
191 290
191 298
191 305
191 306
191 312
191 316
191 321
191 326
192 198
192 212
192 213
192 264
192 272
192 274
192 283
192 294
192 297
192 300
192 309
192 318
192 330
192 338
192 341
193 197
193 217
193 249
193 250
193 251
193 277
193 280
193 296
193 297
193 301
193 303
193 315
193 328
193 337
193 348
194 211
194 220
194 239
194 247
194 252
194 264
194 267
194 282
194 311
194 313
194 318
194 321
194 325
194 335
194 340
194 342
195 200
195 212
195 220
195 229
195 241
195 243
195 245
195 252
195 273
195 274
195 275
195 276
195 278
195 286
195 287
195 288
195 294
195 304
195 314
195 329
195 346
196 205
196 206
196 211
196 216
196 236
196 260
196 273
196 304
196 312
196 313
196 342
196 345
197 203
197 205
197 209
197 213
197 227
197 248
197 272
197 283
197 288
197 312
197 324
197 329
197 334
198 199
198 229
198 233
198 236
198 242
198 248
198 265
198 268
198 274
198 280
198 289
198 299
198 309
198 316
198 329
198 333
198 339
198 340
198 344
199 222
199 232
199 235
199 269
199 288
199 289
199 291
199 295
199 299
199 302
199 307
199 316
199 321
199 323
199 324
199 344
199 348
199 349
200 217
200 218
200 229
200 241
200 271
200 282
200 283
200 285
200 286
200 300
200 301
200 306
200 311
200 314
200 323
200 329
201 230
201 239
201 252
201 264
201 270
201 273
201 280
201 281
201 308
201 310
201 317
201 323
201 344
202 214
202 261
202 271
202 291
202 299
202 309
202 318
202 346
203 204
203 207
203 210
203 218
203 230
203 231
203 233
203 238
203 241
203 251
203 256
203 258
203 260
203 262
203 266
203 277
203 291
203 306
203 307
203 315
203 325
203 330
203 342
203 345
204 218
204 231
204 232
204 253
204 261
204 263
204 264
204 296
204 306
204 311
204 313
204 320
204 323
204 327
204 328
204 330
204 333
205 210
205 228
205 276
205 280
205 300
205 305
205 307
205 321
205 328
205 344
205 348
206 211
206 213
206 222
206 224
206 239
206 264
206 265
206 288
206 290
207 241
207 251
207 268
207 271
207 281
207 287
207 296
207 304
207 307
207 329
207 337
208 213
208 230
208 277
208 280
208 282
208 300
208 323
208 325
208 338
208 344
208 347
208 349
209 218
209 219
209 256
209 267
209 303
209 315
209 320
209 321
209 332
210 217
210 224
210 230
210 232
210 246
210 266
210 270
210 296
210 298
210 310
210 311
210 320
210 329
210 336
211 241
211 248
211 260
211 265
211 276
211 277
211 285
211 288
211 292
211 295
211 302
211 329
211 334
211 339
211 345
211 349
212 222
212 225
212 259
212 271
212 273
212 292
212 300
212 332
212 337
213 234
213 253
213 257
213 266
213 286
213 307
213 344
214 227
214 228
214 234
214 244
214 256
214 259
214 276
214 292
214 296
214 298
214 330
214 331
214 335
215 227
215 237
215 243
215 249
215 271
215 272
215 277
215 287
215 303
215 305
215 309
215 330
215 333
215 334
215 335
215 336
215 337
215 338
215 340
216 218
216 219
216 223
216 230
216 236
216 237
216 251
216 254
216 256
216 261
216 264
216 270
216 273
216 274
216 285
216 289
216 294
216 300
216 305
216 314
216 322
216 327
217 222
217 223
217 231
217 235
217 252
217 253
217 275
217 285
217 289
217 296
217 308
217 318
217 330
217 337
217 338
217 349
218 223
218 231
218 234
218 250
218 255
218 273
218 286
218 324
218 331
218 336
218 342
219 227
219 232
219 237
219 244
219 246
219 249
219 251
219 256
219 275
219 285
219 288
219 295
219 297
219 301
219 313
219 317
219 336
219 339
219 345
219 346
219 349
220 240
220 243
220 252
220 266
220 297
220 302
220 320
220 322
220 328
220 331
220 337
220 342
221 228
221 231
221 238
221 255
221 256
221 257
221 270
221 309
221 329
221 335
221 337
221 338
222 242
222 243
222 247
222 272
222 274
222 283
222 286
222 292
222 314
222 322
222 349
223 227
223 235
223 242
223 248
223 272
223 274
223 286
223 287
223 293
223 296
223 301
223 307
223 333
223 342
223 343
223 347
224 237
224 275
224 279
224 291
224 295
224 302
224 306
224 307
224 341
224 346
225 236
225 268
225 272
225 281
225 284
225 288
225 292
225 296
225 329
225 348
226 239
226 271
226 288
226 289
226 291
226 307
226 311
226 318
226 320
226 327
226 348
227 236
227 250
227 261
227 267
227 272
227 281
227 295
227 307
227 313
227 320
227 322
227 323
227 339
228 231
228 241
228 242
228 253
228 263
228 266
228 275
228 277
228 302
228 304
228 311
228 321
228 328
228 339
228 342
228 348
229 242
229 260
229 268
229 282
229 290
229 296
229 318
229 329
229 332
229 342
230 234
230 236
230 237
230 246
230 264
230 275
230 276
230 295
230 296
230 310
230 330
230 344
231 232
231 237
231 238
231 246
231 271
231 272
231 295
231 306
231 318
231 320
231 333
231 339
232 242
232 247
232 258
232 271
232 276
232 280
232 288
232 306
232 311
232 313
233 248
233 257
233 286
233 299
233 301
233 315
233 327
233 341
233 342
233 343
233 348
234 256
234 257
234 261
234 264
234 272
234 273
234 278
234 283
234 284
234 286
234 304
234 314
234 338
235 239
235 242
235 245
235 269
235 276
235 277
235 281
235 297
235 308
235 322
235 331
235 338
236 243
236 247
236 248
236 258
236 260
236 273
236 276
236 283
236 301
236 309
236 313
236 322
237 241
237 245
237 255
237 283
237 286
237 304
237 307
237 312
237 324
237 325
238 250
238 265
238 266
238 277
238 286
238 293
238 297
238 308
238 312
238 320
238 326
238 337
238 340
238 349
239 258
239 264
239 280
239 285
239 288
239 313
239 347
240 259
240 283
240 297
240 305
240 319
240 337
240 338
240 343
240 347
240 349
241 247
241 269
241 271
241 286
241 290
241 312
241 313
241 320
241 325
241 329
242 257
242 260
242 266
242 284
242 297
242 310
242 320
242 327
242 330
242 338
242 346
243 250
243 288
243 291
243 292
243 296
243 299
243 338
244 254
244 265
244 275
244 276
244 278
244 287
244 288
244 327
244 349
245 247
245 259
245 262
245 263
245 267
245 277
245 279
245 285
245 289
245 290
245 305
245 317
245 319
245 323
245 333
245 335
245 336
245 337
246 252
246 274
246 290
246 302
246 304
246 317
246 330
247 250
247 264
247 266
247 267
247 269
247 272
247 273
247 274
247 292
247 308
247 321
247 327
247 331
247 339
248 250
248 278
248 285
248 290
248 297
248 301
248 311
248 320
248 324
248 326
248 330
248 336
248 347
248 348
249 270
249 279
249 286
249 292
249 297
249 301
249 308
249 314
249 318
249 326
249 344
249 345
250 253
250 260
250 262
250 282
250 286
250 288
250 293
250 296
250 302
250 313
250 314
250 327
251 256
251 266
251 288
251 306
251 322
251 323
251 332
251 347
252 253
252 255
252 256
252 261
252 280
252 310
252 313
252 337
252 341
253 264
253 271
253 276
253 284
253 287
253 306
253 307
253 309
253 311
253 317
253 326
254 294
254 299
254 301
254 331
255 258
255 262
255 265
255 279
255 287
255 298
255 304
255 315
255 323
255 328
255 329
255 340
256 272
256 275
256 277
256 291
256 297
256 308
256 312
256 315
256 318
256 322
256 324
256 347
257 261
257 264
257 282
257 285
257 304
257 309
257 326
257 329
257 337
257 341
257 349
258 271
258 283
258 294
258 297
258 306
258 321
259 261
259 310
259 322
259 330
259 338
259 342
260 277
260 293
260 316
260 322
260 334
260 343
260 347
261 269
261 272
261 296
261 311
261 327
261 329
261 335
261 342
262 263
262 264
262 282
262 292
262 293
262 315
262 325
262 338
262 340
262 343
263 264
263 274
263 279
263 291
263 301
264 273
264 294
264 296
264 307
264 308
264 332
264 343
264 345
264 347
265 284
265 285
265 296
265 299
265 301
265 304
265 306
265 317
265 319
265 330
265 334
265 349
266 271
266 278
266 282
266 284
266 286
266 294
266 303
266 306
266 311
266 330
266 331
267 274
267 280
267 281
267 292
267 313
267 331
267 334
268 270
268 272
268 291
268 295
268 311
268 332
268 342
268 349
269 279
269 294
270 274
270 299
270 302
270 327
270 335
270 348
271 274
271 284
271 307
271 311
271 318
271 319
271 326
271 328
271 338
271 347
271 348
272 273
272 277
272 280
272 284
272 306
272 308
272 322
272 343
273 274
273 284
273 286
273 291
273 326
273 339
273 341
273 342
274 301
274 304
274 316
274 318
274 321
274 325
274 332
274 334
274 340
274 348
275 281
275 284
275 285
275 320
275 325
275 327
275 334
275 342
275 343
275 345
275 349
276 289
276 297
276 301
276 302
276 312
276 314
276 324
276 328
276 330
276 334
276 349
277 300
278 286
278 291
278 302
278 317
278 318
278 320
278 337
279 301
279 314
279 343
280 293
280 303
280 304
280 307
280 310
280 321
280 334
280 343
280 345
281 284
281 296
281 303
281 306
281 309
281 322
281 332
281 335
281 341
282 287
282 290
282 298
282 301
282 321
282 322
282 340
282 341
283 300
283 305
283 314
283 318
283 340
283 348
284 285
284 296
284 314
284 335
284 347
285 287
285 288
285 299
285 311
285 329
285 341
285 349
286 290
286 296
286 300
286 301
286 305
286 330
286 335
286 338
286 347
287 293
287 339
288 292
288 293
288 305
288 306
288 312
288 335
288 343
289 303
289 304
289 324
289 327
289 330
289 331
290 303
290 328
290 331
290 345
291 294
291 296
291 298
291 299
291 302
291 317
291 334
291 335
291 347
292 305
292 317
292 318
292 322
292 334
292 340
292 346
293 295
293 301
293 307
293 309
293 312
293 315
293 319
294 301
294 314
294 339
295 298
295 313
295 314
295 317
295 332
296 307
296 321
296 322
296 335
297 312
297 316
297 320
297 321
297 349
298 323
298 334
298 343
298 346
298 349
299 301
299 308
299 324
299 329
299 342
300 301
300 320
300 324
300 329
300 338
300 342
301 313
301 326
301 331
301 338
301 339
301 342
301 349
302 307
302 317
302 318
302 346
303 320
303 337
303 341
303 345
303 349
304 309
304 313
304 329
304 332
304 341
305 311
305 314
305 315
305 318
305 328
305 335
305 337
305 338
305 339
305 346
306 338
307 312
307 320
307 322
307 324
307 327
307 332
307 343
308 309
308 319
308 332
309 313
309 314
309 330
309 340
309 345
310 319
310 321
310 327
310 333
310 343
310 344
311 321
311 329
311 332
311 341
312 315
312 317
312 327
312 333
313 325
313 331
313 338
313 347
313 348
314 317
314 323
314 328
314 330
314 343
315 317
315 320
315 322
315 336
315 341
315 348
316 325
316 330
316 348
317 338
317 339
317 340
317 347
318 326
318 333
318 345
318 346
319 322
319 324
319 328
319 348
320 325
320 344
321 322
321 335
322 331
322 333
322 345
323 328
323 329
323 333
323 336
325 342
325 344
325 346
326 332
327 332
327 337
327 346
328 336
328 349
329 332
330 335
330 337
332 342
332 345
332 346
337 343
337 345
338 343
338 348
339 341
339 348
340 342
341 344
342 344
343 345
344 349
346 348
