0 9
0 25
0 48
0 70
0 82
0 94
0 108
0 140
0 148
0 190
1 35
1 40
1 45
1 47
1 60
1 63
1 69
1 100
1 160
2 42
2 99
2 114
2 120
2 133
2 147
2 168
3 25
3 37
3 77
3 83
3 94
3 105
3 143
3 157
3 166
3 193
4 10
4 15
4 21
4 41
4 61
4 90
4 110
4 111
4 113
4 132
4 142
4 157
4 193
5 21
5 66
5 125
5 146
5 158
5 187
6 25
6 29
6 47
6 50
6 55
6 62
6 68
6 76
6 142
6 192
6 199
7 54
7 74
7 87
7 92
7 95
7 146
7 157
7 174
8 21
8 38
8 56
8 60
8 62
8 66
8 153
9 10
9 20
9 50
9 77
9 99
9 105
9 122
9 137
9 158
9 178
10 39
10 54
10 79
10 131
11 20
11 65
11 84
11 126
11 136
11 155
11 169
11 186
12 53
12 75
12 76
12 100
12 114
12 124
12 125
12 134
12 141
12 143
12 148
12 157
12 195
13 97
13 118
13 119
13 126
13 163
13 183
13 188
14 35
14 53
14 91
14 95
14 167
14 197
15 24
15 54
15 56
15 66
15 77
15 91
15 111
15 116
15 122
15 137
15 159
15 179
15 193
16 17
16 18
16 54
16 79
16 83
16 91
16 103
16 176
16 198
16 199
17 86
17 89
17 107
17 128
17 160
17 168
17 189
18 25
18 41
18 57
18 78
18 89
18 153
19 62
19 81
19 82
19 99
19 100
19 148
19 153
19 180
19 183
19 190
20 51
20 57
20 79
20 109
20 122
20 165
20 181
20 191
21 29
21 32
21 99
21 122
21 127
21 145
21 147
21 152
21 155
21 157
22 39
22 61
22 67
22 82
22 125
22 137
22 175
22 179
22 189
22 191
23 65
23 84
23 91
23 144
23 184
23 196
24 54
24 143
24 191
25 31
25 47
25 71
25 105
25 139
25 146
25 173
25 191
26 29
26 60
26 78
26 107
26 121
26 146
26 172
26 174
26 183
27 82
27 88
27 90
27 131
27 134
27 177
27 183
27 189
28 52
28 75
28 156
28 159
29 60
29 73
29 98
29 101
29 115
29 147
29 162
30 124
30 148
30 149
30 166
31 153
32 35
32 44
32 51
33 34
33 90
33 119
33 131
33 140
33 163
33 177
33 195
34 139
35 54
35 117
35 124
35 128
35 161
36 41
36 61
36 126
36 140
36 190
36 198
37 90
37 117
37 142
37 187
38 60
38 86
38 90
38 100
38 104
38 176
38 180
39 41
39 90
39 132
39 142
39 184
39 186
39 188
39 198
40 62
40 75
40 87
40 88
40 111
40 130
40 140
41 68
41 85
41 102
41 164
41 175
41 188
42 106
42 111
42 155
42 181
43 45
43 48
43 57
43 62
43 65
43 79
43 101
43 114
43 119
43 170
43 177
44 70
44 81
44 134
44 135
45 57
45 65
45 97
45 105
45 142
45 166
45 184
45 187
45 190
45 199
46 95
46 112
46 155
46 160
46 164
46 193
46 197
47 73
47 80
47 145
48 56
48 66
48 86
48 143
48 168
49 122
49 124
49 184
50 52
50 70
50 83
50 92
50 106
50 115
51 56
51 78
51 103
51 113
51 128
51 148
51 162
51 168
52 61
52 74
52 78
52 79
52 88
52 135
52 150
52 182
53 65
53 94
53 97
53 110
53 118
53 144
53 145
53 174
54 90
54 137
54 146
54 169
54 182
55 94
55 144
55 156
55 158
55 187
56 75
56 85
56 97
56 118
56 148
56 151
56 176
56 177
57 60
57 90
57 144
57 182
57 186
57 195
58 86
58 87
59 61
59 78
59 85
59 103
59 175
59 187
60 66
60 79
60 145
60 182
61 135
61 136
61 142
61 168
61 179
62 63
62 69
62 122
62 127
62 152
62 194
63 69
63 124
63 131
63 140
63 145
63 163
63 169
63 194
64 103
64 109
64 111
64 142
64 153
64 156
64 165
65 69
65 72
65 75
65 98
65 117
65 122
65 131
66 105
66 134
66 178
67 78
67 99
67 121
67 133
67 168
68 97
68 134
68 160
68 182
68 199
69 114
69 123
69 156
69 167
69 190
70 72
70 95
70 118
70 138
70 141
70 162
71 73
71 131
72 119
72 129
72 178
73 132
73 147
73 196
74 82
74 93
74 113
74 118
74 164
74 167
74 191
74 193
75 101
75 124
75 137
75 174
75 185
75 189
76 77
76 93
76 159
76 179
76 193
77 80
77 85
77 103
77 126
77 141
77 159
77 170
78 107
78 124
78 125
79 95
79 99
79 121
79 123
79 139
79 196
80 87
80 99
80 100
80 138
80 159
80 165
80 194
80 197
81 93
81 105
81 107
81 112
81 116
81 121
82 102
82 134
82 146
82 149
82 157
82 176
82 186
83 127
83 133
84 97
84 113
84 189
85 106
85 138
85 149
85 151
85 154
86 129
86 167
86 186
87 123
87 150
87 167
87 193
88 187
88 192
89 94
89 106
89 115
89 116
89 166
89 192
90 95
90 103
90 120
90 146
90 168
90 199
91 114
91 128
91 161
91 193
92 110
92 163
93 98
93 112
93 146
93 155
94 99
94 114
94 120
94 133
95 171
96 114
96 115
96 117
96 120
96 149
96 185
97 115
98 129
98 139
98 166
98 183
98 186
99 122
99 130
100 138
100 143
100 148
100 153
100 170
100 178
100 190
100 197
101 126
101 129
101 136
101 137
101 156
102 103
102 114
102 123
102 133
102 167
102 172
103 136
103 198
104 146
104 157
105 130
105 155
105 158
105 166
105 168
105 181
106 108
106 118
106 121
107 108
107 110
107 120
107 128
107 145
107 161
107 186
109 118
109 174
110 151
110 187
111 131
111 136
111 154
111 175
111 190
111 191
111 195
111 199
112 132
112 156
112 181
113 121
113 122
113 133
113 136
113 151
113 159
114 120
114 131
114 160
115 121
115 127
115 131
115 135
115 148
117 137
117 140
117 141
117 161
117 163
118 129
118 180
119 132
119 139
120 157
120 160
120 191
121 126
121 131
121 132
121 180
121 182
121 185
121 196
122 183
123 169
123 191
124 126
124 163
124 166
124 178
124 194
125 127
125 159
125 160
125 167
125 181
125 190
126 140
126 167
126 189
127 136
127 176
127 188
128 153
128 164
128 190
128 198
129 187
130 133
130 145
130 173
131 174
131 178
131 184
131 185
132 143
132 180
133 176
133 179
134 199
135 145
135 152
135 155
135 165
135 172
136 174
136 175
136 191
137 143
137 160
137 175
137 189
138 180
139 146
139 148
139 197
141 157
141 160
141 172
141 197
142 169
143 156
144 151
144 162
144 169
144 171
144 173
144 185
145 157
145 160
146 189
147 179
148 189
150 159
150 169
150 175
152 192
153 161
153 162
153 181
153 186
154 163
155 166
156 182
157 164
157 187
158 168
158 178
159 198
160 161
160 164
161 187
162 188
162 191
162 196
163 185
164 174
164 178
166 176
166 193
167 176
167 177
167 185
168 176
169 173
169 189
170 176
171 184
173 178
173 180
174 189
176 183
176 198
180 193
184 195
185 186
188 192
189 197
