0 2
0 6
0 7
0 12
0 14
0 18
0 19
0 28
0 33
0 37
0 42
0 44
0 45
0 49
0 53
0 56
0 58
0 65
0 66
0 71
0 72
0 78
0 86
0 96
0 103
0 107
0 114
0 116
0 128
0 132
0 133
0 135
0 141
0 144
0 149
0 150
0 156
0 165
0 166
0 176
0 182
0 186
0 188
0 195
1 9
1 21
1 28
1 29
1 39
1 45
1 56
1 63
1 69
1 75
1 76
1 82
1 83
1 92
1 99
1 109
1 116
1 121
1 125
1 135
1 141
1 171
1 177
1 185
2 4
2 11
2 15
2 23
2 31
2 34
2 36
2 51
2 54
2 55
2 58
2 65
2 68
2 75
2 81
2 85
2 89
2 97
2 99
2 111
2 113
2 121
2 125
2 130
2 137
2 143
2 145
2 157
2 164
2 180
2 181
2 195
2 196
2 198
3 7
3 21
3 22
3 39
3 43
3 44
3 54
3 62
3 65
3 66
3 81
3 83
3 89
3 91
3 98
3 109
3 112
3 123
3 124
3 129
3 130
3 147
3 148
3 174
3 175
3 178
3 187
3 188
3 191
4 11
4 12
4 31
4 38
4 48
4 53
4 54
4 59
4 62
4 65
4 74
4 79
4 80
4 87
4 112
4 113
4 118
4 126
4 128
4 134
4 142
4 144
4 145
4 148
4 151
4 154
4 161
4 169
4 171
4 177
4 188
4 190
4 191
4 197
4 198
5 38
5 43
5 45
5 60
5 62
5 67
5 69
5 77
5 79
5 80
5 85
5 86
5 87
5 88
5 93
5 95
5 96
5 101
5 103
5 105
5 113
5 117
5 118
5 135
5 136
5 138
5 145
5 146
5 157
5 163
5 165
5 167
5 172
5 173
5 174
5 177
5 188
5 192
5 196
5 197
6 7
6 14
6 17
6 18
6 19
6 27
6 29
6 31
6 35
6 36
6 40
6 45
6 64
6 67
6 72
6 75
6 89
6 99
6 102
6 107
6 118
6 129
6 139
6 148
6 150
6 151
6 152
6 158
6 169
6 176
6 180
6 182
6 188
6 197
7 9
7 13
7 16
7 18
7 22
7 26
7 43
7 48
7 53
7 56
7 60
7 73
7 80
7 83
7 86
7 89
7 90
7 95
7 101
7 115
7 121
7 125
7 135
7 140
7 141
7 142
7 143
7 148
7 153
7 156
7 157
7 165
7 166
7 171
7 173
7 176
7 180
7 183
7 188
7 190
7 195
7 196
8 9
8 14
8 23
8 24
8 26
8 27
8 31
8 34
8 51
8 58
8 76
8 79
8 86
8 88
8 91
8 92
8 93
8 101
8 106
8 114
8 129
8 134
8 145
8 154
8 159
8 161
8 162
8 163
8 177
8 179
8 180
8 183
8 187
8 192
8 197
9 23
9 26
9 27
9 39
9 45
9 55
9 72
9 76
9 79
9 80
9 83
9 85
9 87
9 96
9 101
9 102
9 103
9 113
9 117
9 118
9 121
9 128
9 143
9 144
9 146
9 149
9 160
9 166
9 173
9 175
9 181
9 184
9 187
9 188
9 195
9 196
10 13
10 24
10 25
10 34
10 61
10 69
10 74
10 86
10 93
10 95
10 97
10 99
10 113
10 124
10 129
10 132
10 133
10 145
10 146
10 147
10 156
10 157
10 161
10 162
10 165
10 172
10 176
10 180
10 183
10 192
10 194
11 17
11 21
11 23
11 25
11 26
11 40
11 42
11 44
11 48
11 49
11 52
11 59
11 62
11 63
11 64
11 68
11 73
11 76
11 77
11 91
11 93
11 94
11 104
11 108
11 111
11 127
11 136
11 141
11 144
11 157
11 164
11 169
11 171
11 184
11 188
11 192
12 15
12 17
12 19
12 25
12 29
12 32
12 37
12 41
12 44
12 45
12 53
12 63
12 81
12 82
12 93
12 100
12 102
12 105
12 109
12 114
12 115
12 130
12 137
12 139
12 142
12 143
12 144
12 151
12 155
12 157
12 165
12 168
12 175
12 178
12 184
12 187
12 188
12 190
12 198
13 25
13 28
13 33
13 37
13 38
13 46
13 48
13 66
13 75
13 78
13 85
13 87
13 91
13 92
13 96
13 107
13 108
13 111
13 113
13 114
13 117
13 124
13 126
13 129
13 132
13 142
13 148
13 156
13 162
13 178
13 180
13 196
13 197
14 22
14 25
14 30
14 36
14 42
14 44
14 45
14 47
14 53
14 54
14 59
14 65
14 66
14 67
14 69
14 73
14 87
14 96
14 104
14 105
14 109
14 117
14 125
14 127
14 130
14 133
14 138
14 139
14 148
14 158
14 160
14 166
14 168
14 181
14 185
14 192
15 32
15 38
15 42
15 46
15 47
15 51
15 53
15 54
15 57
15 58
15 62
15 68
15 70
15 72
15 85
15 88
15 90
15 93
15 95
15 100
15 113
15 134
15 135
15 137
15 142
15 147
15 155
15 158
15 161
15 166
15 173
15 191
15 193
15 199
16 28
16 31
16 37
16 38
16 39
16 41
16 49
16 52
16 53
16 54
16 56
16 59
16 62
16 70
16 74
16 84
16 85
16 104
16 107
16 117
16 126
16 130
16 131
16 133
16 146
16 147
16 152
16 163
16 166
16 170
16 173
16 175
16 178
16 185
16 187
16 193
16 195
16 196
17 35
17 67
17 68
17 69
17 78
17 83
17 84
17 91
17 101
17 110
17 111
17 118
17 123
17 126
17 127
17 131
17 135
17 137
17 148
17 149
17 157
17 166
17 172
17 174
17 179
17 182
17 184
18 20
18 34
18 37
18 44
18 59
18 66
18 71
18 73
18 82
18 85
18 86
18 90
18 91
18 112
18 118
18 119
18 121
18 128
18 134
18 135
18 137
18 139
18 143
18 147
18 152
18 154
18 157
18 160
18 164
18 165
18 166
18 171
18 177
18 183
18 189
18 195
19 22
19 24
19 30
19 31
19 45
19 49
19 53
19 55
19 74
19 86
19 88
19 93
19 96
19 98
19 108
19 109
19 118
19 119
19 125
19 135
19 136
19 140
19 146
19 150
19 155
19 175
19 180
19 184
19 187
19 195
20 24
20 27
20 47
20 48
20 51
20 55
20 58
20 60
20 61
20 62
20 64
20 71
20 73
20 75
20 76
20 79
20 85
20 87
20 92
20 100
20 101
20 104
20 108
20 110
20 112
20 122
20 123
20 125
20 131
20 152
20 153
20 154
20 160
20 179
20 186
21 22
21 25
21 27
21 32
21 33
21 34
21 39
21 44
21 65
21 68
21 73
21 75
21 79
21 82
21 83
21 85
21 87
21 90
21 99
21 101
21 106
21 111
21 115
21 122
21 124
21 125
21 157
21 158
21 162
21 171
21 176
21 185
21 189
21 191
21 193
22 25
22 26
22 42
22 51
22 63
22 67
22 68
22 70
22 74
22 79
22 80
22 82
22 85
22 87
22 88
22 89
22 92
22 94
22 95
22 118
22 124
22 126
22 128
22 136
22 140
22 142
22 143
22 164
22 172
22 176
22 180
22 181
22 189
23 30
23 33
23 37
23 39
23 43
23 50
23 54
23 55
23 61
23 64
23 66
23 67
23 78
23 83
23 88
23 93
23 108
23 119
23 123
23 126
23 129
23 133
23 134
23 135
23 136
23 142
23 143
23 144
23 172
23 181
23 185
23 186
23 194
23 195
23 196
24 25
24 33
24 37
24 45
24 50
24 54
24 58
24 62
24 73
24 74
24 81
24 87
24 97
24 102
24 108
24 110
24 117
24 130
24 139
24 143
24 147
24 157
24 158
24 173
24 175
24 179
24 182
24 185
24 186
24 190
24 191
25 29
25 44
25 52
25 58
25 65
25 66
25 75
25 81
25 85
25 88
25 89
25 92
25 95
25 104
25 106
25 108
25 112
25 116
25 125
25 128
25 129
25 152
25 157
25 159
25 160
25 166
25 170
25 176
25 177
25 178
25 179
25 185
25 188
25 189
25 190
25 193
25 195
26 49
26 55
26 59
26 65
26 69
26 74
26 76
26 77
26 80
26 83
26 93
26 109
26 118
26 119
26 135
26 139
26 143
26 150
26 159
26 167
26 171
26 176
26 177
26 179
26 181
26 183
26 187
26 191
26 192
27 29
27 30
27 31
27 44
27 45
27 47
27 53
27 55
27 61
27 71
27 75
27 78
27 80
27 100
27 102
27 113
27 115
27 120
27 122
27 124
27 127
27 145
27 157
27 167
27 173
27 181
27 182
27 192
27 195
27 197
28 29
28 31
28 41
28 42
28 43
28 47
28 52
28 55
28 56
28 62
28 66
28 68
28 72
28 99
28 100
28 109
28 119
28 122
28 133
28 134
28 139
28 141
28 147
28 149
28 151
28 159
28 160
28 170
28 177
28 180
28 181
28 185
28 188
28 191
28 195
28 196
29 30
29 39
29 40
29 42
29 54
29 56
29 61
29 65
29 71
29 77
29 79
29 84
29 86
29 90
29 92
29 96
29 110
29 111
29 112
29 119
29 126
29 132
29 136
29 140
29 142
29 145
29 150
29 151
29 160
29 168
29 177
29 183
29 188
29 190
29 194
30 31
30 35
30 43
30 45
30 48
30 60
30 67
30 76
30 92
30 93
30 95
30 103
30 104
30 107
30 113
30 131
30 134
30 136
30 137
30 138
30 139
30 142
30 147
30 156
30 160
30 171
30 173
30 177
31 49
31 60
31 66
31 69
31 72
31 75
31 76
31 80
31 81
31 97
31 122
31 127
31 134
31 136
31 138
31 140
31 149
31 154
31 158
31 162
31 167
31 171
31 173
31 178
31 185
31 193
31 195
31 196
31 198
32 47
32 53
32 62
32 68
32 70
32 75
32 76
32 84
32 88
32 96
32 98
32 101
32 102
32 104
32 108
32 111
32 120
32 122
32 129
32 134
32 144
32 147
32 169
32 176
32 188
32 189
32 194
32 199
33 35
33 42
33 46
33 56
33 57
33 60
33 66
33 73
33 78
33 86
33 90
33 91
33 92
33 94
33 110
33 117
33 120
33 121
33 131
33 136
33 137
33 139
33 147
33 157
33 160
33 168
33 171
33 182
33 190
33 195
33 196
34 39
34 43
34 44
34 53
34 61
34 70
34 74
34 78
34 91
34 96
34 98
34 102
34 105
34 114
34 116
34 137
34 138
34 142
34 144
34 146
34 149
34 153
34 167
34 175
34 185
34 191
35 42
35 47
35 49
35 51
35 56
35 59
35 65
35 66
35 69
35 71
35 75
35 82
35 83
35 84
35 85
35 86
35 93
35 100
35 110
35 121
35 126
35 129
35 131
35 139
35 141
35 144
35 146
35 149
35 150
35 161
35 165
35 171
35 174
35 181
35 188
35 197
36 46
36 67
36 68
36 74
36 85
36 93
36 104
36 105
36 120
36 121
36 129
36 135
36 138
36 143
36 152
36 154
36 161
36 166
36 170
36 181
36 190
36 192
36 193
37 39
37 43
37 59
37 61
37 69
37 80
37 81
37 92
37 100
37 110
37 112
37 114
37 116
37 120
37 146
37 148
37 165
37 179
37 181
37 182
37 184
37 185
37 192
37 196
38 39
38 40
38 48
38 53
38 57
38 61
38 67
38 73
38 75
38 84
38 86
38 88
38 91
38 102
38 107
38 111
38 116
38 117
38 125
38 127
38 129
38 138
38 150
38 152
38 155
38 163
38 166
38 167
38 176
38 185
38 187
38 192
38 195
39 42
39 65
39 66
39 79
39 91
39 92
39 94
39 98
39 103
39 104
39 106
39 109
39 111
39 115
39 122
39 131
39 134
39 140
39 142
39 148
39 149
39 153
39 154
39 161
39 162
39 166
39 180
39 194
39 196
40 45
40 51
40 55
40 57
40 58
40 63
40 64
40 73
40 76
40 86
40 87
40 90
40 92
40 103
40 105
40 111
40 119
40 122
40 124
40 133
40 145
40 150
40 155
40 160
40 163
40 166
40 169
40 173
40 178
40 180
40 186
40 191
41 48
41 49
41 52
41 60
41 72
41 75
41 76
41 80
41 100
41 113
41 131
41 136
41 142
41 144
41 146
41 149
41 152
41 154
41 173
41 175
41 177
41 178
41 182
41 183
41 187
41 191
41 192
41 193
41 195
41 197
41 198
41 199
42 44
42 48
42 49
42 51
42 52
42 60
42 68
42 74
42 101
42 106
42 129
42 131
42 133
42 138
42 149
42 161
42 165
42 167
42 173
42 179
42 182
42 188
43 44
43 47
43 52
43 55
43 59
43 62
43 66
43 69
43 72
43 79
43 83
43 90
43 91
43 97
43 99
43 104
43 107
43 108
43 129
43 131
43 137
43 139
43 152
43 158
43 160
43 165
43 167
43 175
43 187
43 189
43 195
44 45
44 53
44 61
44 65
44 78
44 83
44 85
44 86
44 88
44 97
44 98
44 104
44 112
44 117
44 118
44 119
44 131
44 143
44 146
44 159
44 167
44 169
44 173
44 187
44 196
44 199
45 48
45 50
45 55
45 60
45 69
45 82
45 86
45 92
45 97
45 99
45 110
45 117
45 118
45 120
45 122
45 125
45 144
45 146
45 149
45 151
45 160
45 163
45 165
45 166
45 171
45 184
45 189
45 193
46 54
46 58
46 60
46 63
46 66
46 71
46 82
46 92
46 99
46 116
46 120
46 141
46 142
46 145
46 151
46 157
46 158
46 162
46 167
46 173
46 176
46 192
46 194
46 198
47 59
47 60
47 61
47 71
47 79
47 84
47 85
47 86
47 90
47 100
47 101
47 108
47 114
47 122
47 128
47 132
47 133
47 141
47 144
47 147
47 150
47 151
47 153
47 155
47 160
47 164
47 169
47 173
47 177
47 191
47 195
48 50
48 51
48 55
48 57
48 61
48 66
48 70
48 78
48 88
48 95
48 103
48 104
48 105
48 112
48 113
48 117
48 122
48 123
48 132
48 136
48 137
48 139
48 145
48 146
48 158
48 159
48 162
48 164
48 166
48 192
48 194
49 53
49 56
49 57
49 64
49 74
49 80
49 91
49 96
49 97
49 103
49 104
49 108
49 111
49 114
49 121
49 124
49 125
49 127
49 129
49 136
49 139
49 143
49 149
49 153
49 155
49 156
49 158
49 159
49 160
49 166
49 169
49 173
49 181
49 184
49 186
49 190
49 192
50 57
50 58
50 64
50 77
50 78
50 82
50 83
50 91
50 94
50 100
50 103
50 110
50 112
50 116
50 120
50 123
50 127
50 132
50 135
50 138
50 142
50 148
50 149
50 152
50 157
50 164
50 174
50 176
50 182
50 199
51 54
51 56
51 57
51 58
51 59
51 71
51 72
51 75
51 76
51 84
51 85
51 91
51 97
51 100
51 111
51 123
51 133
51 135
51 140
51 143
51 155
51 171
51 172
51 173
51 174
51 183
51 185
51 190
51 191
51 194
51 195
51 198
52 57
52 58
52 71
52 75
52 88
52 94
52 102
52 106
52 115
52 124
52 131
52 132
52 143
52 148
52 161
52 170
52 174
52 181
52 186
52 190
52 194
53 71
53 74
53 75
53 78
53 89
53 93
53 115
53 117
53 128
53 131
53 136
53 150
53 152
53 157
53 160
53 164
53 165
53 166
53 169
53 172
53 180
53 184
53 186
53 192
53 199
54 55
54 60
54 62
54 69
54 71
54 72
54 73
54 83
54 94
54 100
54 109
54 120
54 127
54 131
54 133
54 140
54 143
54 155
54 159
54 172
54 188
54 191
54 194
55 61
55 75
55 86
55 92
55 97
55 98
55 100
55 105
55 108
55 111
55 118
55 123
55 125
55 132
55 141
55 156
55 162
55 175
55 177
55 181
55 190
55 191
56 62
56 65
56 71
56 79
56 82
56 85
56 96
56 98
56 100
56 112
56 115
56 119
56 125
56 126
56 141
56 161
56 168
56 172
56 176
56 180
56 189
56 190
56 192
56 196
57 66
57 73
57 75
57 77
57 85
57 89
57 97
57 102
57 105
57 113
57 118
57 119
57 122
57 124
57 136
57 145
57 147
57 152
57 154
57 155
57 159
57 161
57 166
57 167
57 180
57 184
57 196
57 198
57 199
58 62
58 63
58 81
58 84
58 88
58 92
58 99
58 102
58 106
58 109
58 112
58 123
58 127
58 129
58 142
58 159
58 167
58 172
58 177
58 180
58 183
58 187
58 188
58 192
58 198
59 63
59 64
59 66
59 68
59 71
59 73
59 81
59 87
59 89
59 91
59 102
59 105
59 107
59 111
59 120
59 122
59 133
59 142
59 144
59 148
59 149
59 151
59 157
59 158
59 169
59 175
59 181
60 68
60 75
60 82
60 89
60 105
60 107
60 108
60 111
60 117
60 134
60 137
60 141
60 151
60 158
60 173
60 179
60 180
60 181
60 184
60 185
60 193
61 71
61 80
61 93
61 95
61 96
61 100
61 101
61 102
61 111
61 116
61 124
61 127
61 135
61 137
61 140
61 148
61 166
61 170
61 176
61 179
61 181
61 190
61 193
62 65
62 69
62 70
62 82
62 84
62 90
62 93
62 116
62 121
62 122
62 126
62 127
62 129
62 131
62 137
62 142
62 144
62 145
62 151
62 165
62 174
62 176
62 179
62 193
62 198
62 199
63 64
63 68
63 70
63 81
63 90
63 92
63 97
63 98
63 109
63 116
63 121
63 124
63 130
63 135
63 138
63 141
63 161
63 165
63 168
63 173
63 175
63 176
63 181
63 185
63 192
63 199
64 65
64 66
64 69
64 78
64 82
64 98
64 102
64 110
64 115
64 120
64 123
64 131
64 133
64 136
64 145
64 149
64 150
64 154
64 155
64 168
64 170
64 173
64 174
64 177
64 183
64 187
64 195
64 196
64 199
65 71
65 82
65 88
65 93
65 94
65 104
65 105
65 111
65 112
65 121
65 132
65 147
65 156
65 166
65 171
65 177
65 179
65 183
65 185
65 188
65 193
65 197
66 74
66 88
66 102
66 103
66 104
66 105
66 107
66 108
66 114
66 123
66 137
66 141
66 151
66 157
66 166
66 183
66 187
66 195
66 196
67 69
67 70
67 75
67 82
67 84
67 93
67 96
67 101
67 105
67 106
67 107
67 110
67 116
67 127
67 128
67 131
67 132
67 136
67 142
67 146
67 148
67 150
67 161
67 164
67 166
67 167
67 177
67 180
67 188
67 189
67 197
68 74
68 77
68 85
68 95
68 113
68 114
68 117
68 125
68 132
68 146
68 147
68 149
68 152
68 154
68 155
68 164
68 178
68 187
68 188
68 193
68 195
68 197
69 73
69 78
69 79
69 80
69 81
69 82
69 83
69 85
69 90
69 100
69 101
69 108
69 114
69 117
69 118
69 123
69 137
69 142
69 145
69 155
69 164
69 168
69 173
69 174
69 177
69 179
69 180
69 185
69 189
69 190
69 195
69 197
69 198
70 75
70 78
70 82
70 92
70 111
70 113
70 132
70 138
70 151
70 153
70 154
70 162
70 164
70 168
70 180
70 186
70 196
70 197
71 72
71 75
71 78
71 81
71 90
71 92
71 102
71 112
71 117
71 119
71 121
71 125
71 129
71 139
71 142
71 144
71 148
71 156
71 165
71 167
71 192
71 194
72 74
72 75
72 78
72 81
72 82
72 93
72 96
72 108
72 116
72 120
72 124
72 127
72 128
72 129
72 141
72 146
72 148
72 150
72 154
72 167
72 169
72 170
72 172
72 174
72 175
72 191
72 192
72 196
73 76
73 87
73 94
73 96
73 99
73 103
73 105
73 111
73 117
73 123
73 125
73 130
73 132
73 145
73 146
73 147
73 154
73 156
73 157
73 162
73 167
73 169
73 187
73 188
73 192
74 78
74 82
74 92
74 96
74 109
74 120
74 121
74 123
74 134
74 140
74 146
74 155
74 158
74 173
74 174
74 179
74 182
74 186
74 187
74 193
75 78
75 79
75 82
75 86
75 97
75 104
75 115
75 126
75 139
75 142
75 146
75 151
75 154
75 158
75 159
75 160
75 162
75 165
75 166
75 169
75 175
75 180
75 182
75 186
75 192
76 82
76 83
76 87
76 93
76 95
76 102
76 103
76 105
76 110
76 116
76 121
76 128
76 132
76 133
76 134
76 136
76 142
76 152
76 158
76 159
76 162
76 166
76 167
76 184
76 186
76 189
76 191
77 91
77 93
77 104
77 107
77 108
77 124
77 130
77 135
77 136
77 139
77 149
77 164
77 168
77 173
77 178
77 179
77 181
77 188
77 189
77 190
77 191
77 193
77 194
77 197
78 85
78 93
78 95
78 97
78 98
78 99
78 101
78 106
78 119
78 126
78 135
78 139
78 148
78 152
78 157
78 158
78 163
78 180
78 182
78 185
78 192
79 85
79 86
79 104
79 108
79 109
79 116
79 119
79 121
79 122
79 124
79 129
79 130
79 131
79 134
79 136
79 140
79 142
79 147
79 148
79 152
79 160
79 166
79 172
79 180
79 192
79 196
79 199
80 81
80 84
80 85
80 86
80 92
80 94
80 100
80 102
80 104
80 112
80 118
80 119
80 130
80 134
80 140
80 141
80 157
80 167
80 169
80 176
80 185
81 87
81 90
81 93
81 94
81 104
81 106
81 108
81 113
81 121
81 134
81 135
81 141
81 152
81 157
81 160
81 164
81 166
81 170
81 174
81 176
81 178
81 181
81 184
81 185
81 191
81 195
82 97
82 98
82 112
82 117
82 120
82 129
82 137
82 139
82 143
82 144
82 145
82 146
82 149
82 153
82 157
82 159
82 163
82 167
82 168
82 171
82 176
82 184
82 185
82 186
83 86
83 94
83 95
83 97
83 107
83 112
83 114
83 115
83 116
83 123
83 125
83 127
83 129
83 131
83 137
83 139
83 142
83 143
83 151
83 155
83 166
83 171
83 172
83 178
83 189
83 193
83 197
83 198
84 89
84 92
84 95
84 102
84 111
84 115
84 124
84 132
84 137
84 148
84 149
84 157
84 158
84 170
84 178
84 180
84 183
84 190
84 192
84 197
84 199
85 90
85 103
85 114
85 116
85 118
85 123
85 131
85 137
85 143
85 146
85 147
85 148
85 155
85 165
85 174
85 175
85 185
85 189
85 191
85 192
85 194
85 198
86 89
86 94
86 104
86 106
86 110
86 125
86 126
86 139
86 148
86 158
86 168
86 179
86 182
86 185
86 190
86 192
86 193
87 95
87 103
87 115
87 117
87 124
87 128
87 138
87 143
87 145
87 156
87 157
87 164
87 166
87 177
87 179
87 181
87 183
87 190
88 95
88 108
88 110
88 114
88 123
88 129
88 134
88 136
88 144
88 145
88 146
88 150
88 153
88 154
88 156
88 158
88 171
88 172
88 181
88 183
88 190
88 193
88 197
89 102
89 112
89 114
89 120
89 124
89 129
89 132
89 140
89 141
89 142
89 143
89 161
89 169
89 173
89 180
89 187
89 195
90 92
90 112
90 116
90 119
90 123
90 128
90 144
90 154
90 156
90 160
90 161
90 162
90 167
90 172
90 197
90 198
91 97
91 111
91 123
91 126
91 127
91 137
91 152
91 155
91 167
91 170
91 182
92 95
92 96
92 101
92 102
92 104
92 106
92 107
92 109
92 115
92 117
92 127
92 130
92 137
92 139
92 141
92 146
92 156
92 165
92 172
92 185
92 187
92 189
92 191
92 192
93 98
93 101
93 105
93 107
93 120
93 121
93 123
93 126
93 138
93 140
93 161
93 175
93 186
93 191
93 192
94 101
94 103
94 104
94 108
94 111
94 122
94 123
94 124
94 127
94 132
94 139
94 147
94 149
94 162
94 163
94 166
94 167
94 171
94 181
94 182
94 189
94 191
94 199
95 99
95 106
95 107
95 109
95 114
95 115
95 118
95 127
95 133
95 146
95 148
95 149
95 151
95 152
95 155
95 158
95 159
95 160
95 161
95 173
95 178
95 179
95 190
95 195
95 199
96 101
96 110
96 114
96 115
96 121
96 137
96 139
96 148
96 154
96 155
96 169
96 183
96 190
96 191
96 192
97 99
97 109
97 122
97 123
97 131
97 132
97 159
97 161
97 182
97 186
97 193
98 108
98 114
98 118
98 129
98 132
98 142
98 147
98 148
98 157
98 160
98 163
98 168
98 172
98 178
98 181
98 184
98 186
98 190
98 197
99 100
99 106
99 113
99 115
99 116
99 117
99 145
99 153
99 160
99 167
99 171
99 175
99 177
99 178
99 193
100 106
100 107
100 110
100 113
100 114
100 115
100 116
100 117
100 125
100 130
100 131
100 134
100 135
100 136
100 138
100 139
100 142
100 150
100 155
100 160
100 162
100 163
100 168
100 182
100 186
101 102
101 109
101 123
101 124
101 127
101 138
101 144
101 147
101 149
101 156
101 159
101 161
101 172
101 175
101 178
101 180
101 181
101 182
101 184
101 192
101 193
101 197
101 198
101 199
102 103
102 107
102 111
102 114
102 115
102 123
102 124
102 126
102 128
102 133
102 135
102 140
102 146
102 148
102 151
102 156
102 162
102 170
102 178
102 189
103 112
103 118
103 132
103 134
103 135
103 147
103 150
103 151
103 154
103 163
103 164
103 168
103 172
103 174
103 179
103 182
103 187
103 192
103 198
103 199
104 106
104 107
104 109
104 118
104 119
104 120
104 130
104 133
104 136
104 140
104 150
104 152
104 156
104 160
104 162
104 164
104 171
104 179
105 107
105 112
105 114
105 116
105 119
105 120
105 124
105 127
105 132
105 135
105 142
105 148
105 152
105 154
105 156
105 157
105 158
105 161
105 164
105 177
105 178
105 180
105 183
105 185
105 191
105 192
105 193
106 107
106 130
106 139
106 143
106 145
106 148
106 166
106 175
106 177
106 180
106 182
106 192
106 194
107 113
107 126
107 128
107 130
107 132
107 134
107 135
107 136
107 142
107 148
107 161
107 165
107 183
107 188
107 191
107 193
107 195
107 197
107 198
108 114
108 118
108 123
108 127
108 128
108 131
108 140
108 148
108 152
108 157
108 173
108 175
108 194
109 118
109 119
109 120
109 130
109 141
109 155
109 161
109 167
109 180
109 183
109 185
109 194
109 197
109 199
110 117
110 118
110 125
110 126
110 127
110 145
110 157
110 161
110 170
110 177
110 183
110 188
111 112
111 122
111 125
111 126
111 127
111 133
111 137
111 142
111 143
111 144
111 145
111 147
111 150
111 151
111 153
111 154
111 159
111 169
111 172
111 178
111 179
111 183
111 184
111 189
111 191
111 193
111 199
112 113
112 134
112 136
112 146
112 158
112 165
112 166
112 167
112 175
112 176
112 189
112 192
112 195
112 198
113 115
113 119
113 123
113 130
113 135
113 137
113 157
113 172
113 176
113 185
113 198
114 116
114 121
114 125
114 127
114 133
114 140
114 141
114 145
114 147
114 148
114 150
114 158
114 164
114 183
114 195
114 198
115 116
115 123
115 144
115 156
115 160
115 161
115 167
115 168
115 174
115 178
115 181
115 184
115 186
115 188
115 190
115 196
116 122
116 124
116 130
116 140
116 152
116 158
116 168
116 184
116 194
117 128
117 143
117 146
117 150
117 151
117 152
117 159
117 187
117 196
118 125
118 127
118 129
118 130
118 132
118 134
118 136
118 142
118 150
118 158
118 160
118 165
118 171
118 180
118 194
118 195
118 197
118 199
119 120
119 125
119 135
119 143
119 151
119 152
119 153
119 157
119 159
119 163
119 168
119 185
119 192
119 198
120 125
120 126
120 137
120 138
120 145
120 151
120 154
120 158
120 164
120 171
120 178
120 182
120 186
120 194
120 198
120 199
121 128
121 129
121 138
121 149
121 150
121 152
121 155
121 157
121 179
121 181
121 190
121 193
121 195
121 199
122 131
122 132
122 141
122 142
122 154
122 164
122 165
122 167
122 172
122 178
122 187
122 189
122 190
122 191
122 198
123 134
123 158
123 163
123 171
123 178
123 182
123 184
123 192
123 193
123 198
124 132
124 141
124 144
124 145
124 146
124 151
124 158
124 167
124 168
124 175
124 179
124 181
124 183
125 136
125 138
125 144
125 147
125 150
125 161
125 164
125 167
125 172
125 174
125 181
125 187
125 188
125 190
125 195
126 135
126 146
126 155
126 158
126 172
126 179
126 184
126 197
127 149
127 171
127 173
127 176
127 178
127 179
127 184
127 186
127 191
127 192
127 196
127 197
127 199
128 133
128 135
128 136
128 138
128 141
128 149
128 150
128 162
128 163
128 170
128 171
128 179
128 193
128 198
128 199
129 132
129 140
129 173
129 175
129 188
129 189
129 193
129 194
129 199
130 135
130 136
130 147
130 162
130 163
130 167
130 171
130 174
130 183
130 195
130 197
131 142
131 146
131 149
131 162
131 166
131 171
131 173
131 179
131 181
131 183
131 188
131 191
132 137
132 142
132 144
132 145
132 149
132 150
132 166
132 170
132 171
132 178
132 179
132 185
132 188
132 189
132 192
132 196
132 199
133 139
133 141
133 144
133 154
133 156
133 158
133 160
133 165
133 170
133 174
133 176
133 179
134 147
134 148
134 152
134 153
134 160
134 172
134 179
134 182
134 190
134 191
134 196
135 140
135 143
135 151
135 153
135 158
135 160
135 164
135 173
135 178
135 185
135 186
135 190
135 198
136 138
136 143
136 151
136 158
136 159
136 162
136 163
136 169
136 173
136 175
136 179
136 180
136 181
136 182
136 190
136 192
136 197
137 140
137 141
137 146
137 149
137 160
137 165
137 172
137 173
137 174
137 176
137 190
137 194
137 197
138 143
138 145
138 156
138 175
138 176
138 184
138 189
138 197
139 146
139 147
139 152
139 159
139 167
139 168
139 175
139 176
139 179
139 191
139 195
140 145
140 185
140 191
140 192
140 195
141 142
141 144
141 145
141 146
141 155
141 174
141 179
141 182
141 183
141 192
141 194
141 197
142 152
142 155
142 159
142 165
142 181
142 183
142 186
142 190
142 194
142 198
143 147
143 151
143 152
143 155
143 158
143 159
143 163
143 167
143 169
143 192
143 196
144 146
144 151
144 153
144 177
144 179
144 187
144 189
144 194
144 196
144 198
145 149
145 150
145 154
145 163
145 164
145 174
145 178
145 180
146 150
146 156
146 165
146 168
146 171
146 175
146 181
146 199
147 151
147 159
147 165
147 170
147 185
147 196
148 167
148 173
148 181
148 182
148 185
148 187
148 192
148 195
149 151
149 152
149 153
149 155
149 157
149 158
149 163
149 167
149 174
149 186
149 189
150 154
150 158
150 161
150 168
150 175
150 176
150 182
150 188
150 192
150 198
151 161
151 168
151 169
151 174
151 178
151 180
151 186
151 187
151 188
151 193
152 153
152 154
152 156
152 157
152 164
152 172
152 176
152 179
152 186
152 194
152 196
152 197
153 155
153 157
153 160
153 169
153 170
153 183
153 187
153 194
153 199
154 155
154 158
154 160
154 167
154 174
154 176
154 181
154 184
154 189
154 195
155 164
155 174
155 194
155 198
156 166
156 169
156 171
156 182
156 187
156 195
156 197
157 166
157 176
157 197
158 160
158 167
158 177
158 181
158 185
158 187
158 198
159 163
159 166
159 172
159 177
159 191
159 192
160 164
160 168
160 181
160 183
160 189
160 190
160 191
160 195
160 198
160 199
161 163
161 164
161 171
161 175
162 164
162 166
162 169
162 178
162 197
163 171
163 172
163 174
163 183
163 190
163 196
164 165
164 166
164 175
164 176
164 177
164 179
164 183
164 184
164 185
164 187
164 188
164 191
165 170
165 173
165 180
165 186
165 187
165 193
165 194
166 172
166 179
166 193
167 169
167 179
167 188
167 194
167 199
168 169
168 171
168 177
168 178
168 181
169 179
169 191
169 195
170 172
170 174
170 178
170 180
170 182
170 187
171 175
171 180
171 182
171 185
171 186
171 192
171 199
172 181
172 196
173 175
173 177
173 179
173 181
173 182
173 196
174 180
174 183
174 186
174 190
174 194
175 177
175 180
175 185
175 189
175 190
175 197
176 177
176 178
176 181
176 199
177 178
177 180
177 184
177 186
177 187
177 191
177 196
178 187
178 190
178 192
178 198
179 181
179 185
179 186
179 193
179 197
179 198
180 187
180 193
180 196
181 195
181 199
182 184
182 185
182 189
182 190
182 197
182 199
183 193
183 195
184 187
184 190
184 191
184 192
185 188
185 199
186 187
186 188
186 189
186 197
187 192
187 197
188 193
188 196
189 190
189 192
189 193
189 194
191 196
191 197
193 194
195 197
197 199
