0 5
0 8
0 15
0 36
0 54
0 61
0 74
0 80
0 147
0 168
0 192
0 193
0 196
0 201
0 204
0 212
0 219
0 221
0 224
0 227
0 270
0 286
0 314
0 323
0 347
0 356
0 369
0 373
0 390
0 391
0 395
0 396
0 403
0 423
0 435
0 489
0 492
1 14
1 23
1 27
1 50
1 65
1 79
1 81
1 82
1 88
1 110
1 111
1 122
1 126
1 130
1 139
1 156
1 175
1 177
1 182
1 200
1 222
1 223
1 236
1 240
1 303
1 305
1 325
1 326
1 342
1 343
1 387
1 393
1 406
1 420
1 429
2 12
2 28
2 30
2 38
2 52
2 67
2 79
2 80
2 99
2 121
2 133
2 151
2 152
2 164
2 196
2 204
2 220
2 227
2 232
2 234
2 271
2 279
2 299
2 309
2 310
2 316
2 325
2 337
2 348
2 361
2 372
2 378
2 388
2 389
2 401
2 405
2 461
2 462
2 475
2 484
2 488
3 23
3 25
3 32
3 36
3 54
3 82
3 101
3 116
3 124
3 144
3 161
3 196
3 198
3 204
3 206
3 211
3 217
3 218
3 247
3 262
3 269
3 275
3 280
3 294
3 295
3 315
3 316
3 319
3 376
3 386
3 397
3 418
3 420
3 431
3 436
3 445
3 452
3 478
3 485
4 7
4 29
4 49
4 55
4 98
4 109
4 112
4 135
4 150
4 186
4 190
4 191
4 243
4 277
4 284
4 289
4 305
4 310
4 318
4 341
4 385
4 388
4 394
4 401
4 426
4 434
4 453
4 456
4 496
4 499
5 16
5 48
5 53
5 61
5 101
5 103
5 123
5 137
5 154
5 181
5 192
5 235
5 237
5 265
5 277
5 279
5 304
5 347
5 350
5 359
5 366
5 377
5 385
5 394
5 395
5 421
5 425
5 429
5 475
5 477
5 490
6 7
6 12
6 14
6 30
6 39
6 47
6 53
6 74
6 77
6 99
6 105
6 117
6 130
6 138
6 144
6 169
6 206
6 210
6 242
6 251
6 255
6 263
6 278
6 285
6 299
6 329
6 354
6 365
6 436
6 439
6 449
6 450
6 481
7 12
7 38
7 47
7 71
7 73
7 84
7 113
7 118
7 121
7 122
7 141
7 162
7 182
7 184
7 187
7 215
7 234
7 235
7 238
7 282
7 300
7 316
7 353
7 368
7 381
7 407
7 412
7 416
7 430
7 447
7 462
7 485
8 52
8 63
8 89
8 113
8 122
8 127
8 152
8 185
8 191
8 203
8 206
8 225
8 252
8 264
8 265
8 279
8 304
8 307
8 309
8 329
8 353
8 373
8 381
8 391
8 395
8 397
8 398
8 403
8 415
8 486
8 496
9 13
9 21
9 89
9 92
9 98
9 112
9 132
9 138
9 139
9 141
9 183
9 184
9 201
9 205
9 209
9 219
9 221
9 242
9 245
9 246
9 258
9 262
9 266
9 273
9 299
9 301
9 309
9 322
9 328
9 350
9 362
9 377
9 392
9 404
9 422
9 456
9 492
9 494
10 14
10 27
10 34
10 40
10 58
10 95
10 100
10 110
10 123
10 142
10 143
10 144
10 159
10 163
10 175
10 180
10 216
10 227
10 238
10 242
10 253
10 267
10 272
10 338
10 339
10 343
10 377
10 378
10 394
10 416
10 430
10 449
10 485
11 34
11 46
11 61
11 87
11 90
11 128
11 137
11 175
11 177
11 193
11 199
11 204
11 207
11 211
11 214
11 232
11 237
11 243
11 264
11 266
11 323
11 349
11 356
11 369
11 390
11 411
11 420
11 428
11 436
11 462
11 466
11 467
12 27
12 55
12 58
12 73
12 89
12 95
12 103
12 139
12 146
12 147
12 166
12 181
12 204
12 224
12 230
12 235
12 238
12 241
12 275
12 280
12 300
12 312
12 325
12 326
12 329
12 332
12 340
12 357
12 368
12 379
12 389
12 426
12 436
12 454
12 463
12 475
12 478
12 487
12 490
12 494
13 20
13 28
13 36
13 91
13 94
13 127
13 157
13 158
13 172
13 174
13 184
13 189
13 227
13 230
13 233
13 236
13 249
13 312
13 325
13 367
13 376
13 386
13 398
13 400
13 407
13 411
13 422
13 437
13 449
14 21
14 28
14 59
14 63
14 70
14 81
14 89
14 90
14 92
14 111
14 112
14 126
14 135
14 137
14 142
14 150
14 152
14 168
14 183
14 192
14 339
14 352
14 358
14 401
14 402
14 410
14 419
14 447
14 455
14 465
15 21
15 27
15 38
15 45
15 49
15 51
15 83
15 118
15 124
15 131
15 144
15 150
15 154
15 181
15 186
15 212
15 226
15 235
15 236
15 238
15 253
15 279
15 287
15 305
15 330
15 349
15 359
15 362
15 388
15 408
15 412
15 456
15 470
15 497
16 19
16 22
16 33
16 41
16 42
16 46
16 59
16 60
16 86
16 94
16 111
16 114
16 118
16 160
16 175
16 210
16 229
16 260
16 316
16 317
16 345
16 360
16 376
16 380
16 388
16 448
16 450
16 456
16 458
16 472
16 478
16 489
17 19
17 20
17 32
17 33
17 43
17 46
17 49
17 55
17 73
17 88
17 89
17 142
17 149
17 154
17 166
17 214
17 235
17 239
17 250
17 253
17 254
17 264
17 278
17 282
17 285
17 287
17 296
17 300
17 338
17 344
17 374
17 384
17 405
17 411
17 433
17 441
17 445
17 460
17 484
17 487
17 494
18 71
18 83
18 102
18 112
18 114
18 117
18 156
18 157
18 175
18 183
18 184
18 193
18 255
18 271
18 284
18 291
18 318
18 320
18 329
18 338
18 339
18 345
18 357
18 360
18 370
18 375
18 388
18 393
18 399
18 407
18 411
18 461
18 479
18 490
19 48
19 57
19 89
19 109
19 147
19 150
19 165
19 173
19 185
19 198
19 212
19 222
19 223
19 229
19 239
19 240
19 259
19 280
19 283
19 289
19 293
19 314
19 318
19 359
19 418
19 419
19 433
19 459
19 471
19 480
19 488
19 496
20 24
20 31
20 38
20 48
20 57
20 65
20 69
20 82
20 100
20 112
20 124
20 125
20 150
20 157
20 171
20 210
20 230
20 286
20 330
20 365
20 400
20 413
20 443
20 451
20 473
20 485
21 61
21 73
21 75
21 80
21 86
21 87
21 94
21 97
21 113
21 124
21 157
21 190
21 211
21 212
21 228
21 229
21 251
21 263
21 280
21 282
21 284
21 285
21 304
21 306
21 333
21 336
21 344
21 360
21 380
21 382
21 430
21 462
21 481
21 484
22 44
22 52
22 55
22 72
22 76
22 127
22 142
22 148
22 182
22 191
22 192
22 194
22 197
22 203
22 216
22 217
22 225
22 230
22 238
22 242
22 269
22 271
22 272
22 286
22 289
22 320
22 325
22 336
22 367
22 368
22 372
22 374
22 381
22 385
22 394
22 408
22 412
22 417
22 427
22 432
22 434
22 441
22 462
22 468
22 471
22 478
22 492
23 24
23 27
23 31
23 36
23 41
23 44
23 46
23 86
23 89
23 123
23 128
23 129
23 145
23 171
23 201
23 248
23 251
23 269
23 278
23 290
23 318
23 322
23 329
23 331
23 333
23 338
23 339
23 345
23 346
23 355
23 379
23 387
23 403
23 427
23 446
23 478
23 481
23 489
24 45
24 71
24 73
24 115
24 128
24 130
24 135
24 153
24 166
24 170
24 183
24 191
24 198
24 205
24 209
24 212
24 238
24 241
24 260
24 267
24 272
24 274
24 275
24 311
24 315
24 321
24 355
24 356
24 391
24 401
24 420
24 425
24 439
24 441
24 452
24 457
25 26
25 43
25 78
25 80
25 84
25 95
25 112
25 146
25 147
25 149
25 150
25 151
25 163
25 165
25 178
25 188
25 199
25 202
25 208
25 211
25 220
25 221
25 239
25 255
25 272
25 319
25 320
25 353
25 382
25 383
25 393
25 394
25 416
25 422
25 441
25 453
25 476
26 34
26 42
26 57
26 95
26 122
26 150
26 151
26 157
26 179
26 182
26 205
26 211
26 219
26 232
26 239
26 243
26 289
26 295
26 318
26 324
26 414
26 487
26 491
27 51
27 94
27 130
27 143
27 148
27 161
27 165
27 253
27 260
27 270
27 271
27 280
27 285
27 287
27 310
27 320
27 327
27 337
27 344
27 345
27 359
27 361
27 377
27 391
27 428
27 430
27 469
27 497
28 50
28 70
28 90
28 109
28 133
28 148
28 164
28 218
28 233
28 243
28 245
28 248
28 255
28 258
28 276
28 286
28 294
28 308
28 326
28 329
28 331
28 336
28 341
28 395
28 413
28 438
28 444
28 463
28 488
29 48
29 49
29 51
29 54
29 57
29 60
29 69
29 70
29 71
29 81
29 84
29 98
29 108
29 124
29 125
29 153
29 156
29 162
29 191
29 217
29 221
29 224
29 260
29 265
29 272
29 276
29 278
29 299
29 331
29 343
29 379
29 406
29 413
29 420
29 433
29 438
29 450
29 488
29 489
29 497
30 42
30 86
30 87
30 89
30 99
30 104
30 130
30 143
30 160
30 218
30 241
30 254
30 257
30 281
30 310
30 340
30 341
30 392
30 397
30 398
30 417
30 442
30 457
30 464
30 487
30 496
31 32
31 34
31 73
31 106
31 122
31 125
31 132
31 173
31 187
31 193
31 204
31 216
31 248
31 254
31 286
31 330
31 331
31 353
31 356
31 381
31 383
31 400
31 403
31 417
31 437
31 476
32 37
32 43
32 63
32 67
32 70
32 79
32 95
32 112
32 115
32 124
32 159
32 162
32 168
32 175
32 179
32 196
32 223
32 231
32 238
32 245
32 265
32 266
32 325
32 343
32 403
32 434
32 462
32 471
32 478
32 489
33 47
33 64
33 81
33 89
33 90
33 144
33 182
33 202
33 255
33 265
33 282
33 283
33 300
33 305
33 330
33 331
33 349
33 356
33 358
33 368
33 379
33 381
33 386
33 435
33 454
33 481
34 47
34 76
34 94
34 118
34 165
34 167
34 203
34 207
34 216
34 225
34 226
34 249
34 272
34 281
34 289
34 292
34 295
34 309
34 311
34 315
34 326
34 327
34 328
34 333
34 338
34 339
34 376
34 387
34 394
34 396
34 408
34 428
34 448
34 494
35 60
35 74
35 86
35 89
35 157
35 165
35 171
35 215
35 225
35 227
35 232
35 258
35 273
35 275
35 287
35 293
35 298
35 309
35 313
35 334
35 357
35 377
35 399
35 404
35 442
35 463
35 467
35 489
36 43
36 60
36 73
36 115
36 153
36 157
36 171
36 185
36 195
36 202
36 206
36 218
36 238
36 285
36 297
36 308
36 312
36 343
36 395
36 417
36 421
36 430
36 432
36 439
36 440
36 441
36 448
37 44
37 47
37 72
37 111
37 176
37 185
37 192
37 196
37 209
37 273
37 274
37 279
37 293
37 310
37 323
37 333
37 357
37 364
37 376
37 419
37 443
37 466
37 477
37 491
37 496
38 46
38 50
38 56
38 77
38 124
38 137
38 145
38 172
38 173
38 199
38 214
38 222
38 241
38 244
38 252
38 270
38 271
38 293
38 325
38 329
38 346
38 350
38 362
38 364
38 401
38 413
38 425
38 431
38 452
38 479
38 489
39 44
39 49
39 50
39 87
39 101
39 126
39 127
39 137
39 143
39 151
39 157
39 160
39 162
39 163
39 174
39 176
39 189
39 195
39 206
39 212
39 219
39 233
39 252
39 261
39 262
39 274
39 316
39 337
39 350
39 362
39 374
39 422
39 428
39 433
39 438
39 449
39 464
39 467
39 487
39 489
40 61
40 78
40 80
40 85
40 86
40 92
40 109
40 112
40 144
40 158
40 160
40 168
40 169
40 175
40 176
40 229
40 244
40 262
40 273
40 279
40 297
40 298
40 320
40 333
40 342
40 355
40 360
40 377
40 382
40 385
40 407
40 417
40 432
40 436
40 447
40 460
40 462
40 466
40 476
40 489
40 492
40 495
40 496
41 46
41 62
41 71
41 94
41 121
41 153
41 182
41 185
41 230
41 242
41 265
41 278
41 288
41 304
41 357
41 360
41 369
41 383
41 385
41 387
41 394
41 400
41 422
41 427
41 468
41 474
42 55
42 71
42 79
42 89
42 93
42 96
42 108
42 152
42 185
42 205
42 208
42 216
42 242
42 252
42 268
42 293
42 316
42 318
42 321
42 356
42 358
42 369
42 402
42 423
42 447
42 448
42 453
42 465
42 477
42 484
42 485
42 486
42 495
42 496
43 51
43 73
43 85
43 98
43 111
43 161
43 177
43 192
43 195
43 203
43 216
43 220
43 231
43 252
43 267
43 276
43 278
43 279
43 289
43 322
43 325
43 387
43 391
43 394
43 413
43 439
43 452
43 491
43 494
43 496
44 59
44 62
44 67
44 76
44 79
44 96
44 132
44 135
44 148
44 159
44 161
44 172
44 180
44 182
44 232
44 244
44 247
44 256
44 274
44 283
44 323
44 333
44 349
44 356
44 370
44 380
44 430
44 431
44 436
44 443
44 445
44 450
44 453
44 455
44 461
44 495
45 67
45 102
45 128
45 150
45 162
45 170
45 179
45 191
45 192
45 196
45 207
45 220
45 244
45 245
45 250
45 277
45 293
45 354
45 395
45 421
45 435
45 475
45 494
46 84
46 101
46 130
46 134
46 141
46 151
46 164
46 173
46 185
46 201
46 240
46 255
46 260
46 287
46 304
46 322
46 356
46 360
46 380
46 389
46 422
46 431
46 449
46 454
46 461
46 463
46 481
47 67
47 76
47 85
47 94
47 108
47 112
47 114
47 117
47 131
47 163
47 179
47 183
47 184
47 191
47 204
47 221
47 232
47 233
47 250
47 360
47 368
47 399
47 418
47 429
47 431
47 436
47 442
47 464
47 480
48 62
48 94
48 114
48 160
48 162
48 177
48 198
48 205
48 224
48 234
48 241
48 243
48 244
48 262
48 299
48 302
48 331
48 335
48 409
48 417
48 429
48 454
48 469
48 480
49 73
49 116
49 142
49 168
49 180
49 217
49 230
49 241
49 248
49 252
49 304
49 312
49 331
49 332
49 335
49 341
49 352
49 384
49 398
49 410
49 422
49 434
49 448
49 449
50 55
50 117
50 121
50 137
50 152
50 184
50 186
50 198
50 214
50 220
50 240
50 245
50 266
50 289
50 299
50 314
50 320
50 348
50 365
50 371
50 374
50 381
50 436
50 439
50 451
50 476
50 494
51 65
51 71
51 73
51 101
51 104
51 106
51 114
51 135
51 149
51 151
51 165
51 212
51 221
51 242
51 260
51 274
51 285
51 295
51 348
51 355
51 358
51 363
51 365
51 408
51 432
51 442
51 452
51 460
51 464
51 465
51 474
51 487
51 495
52 59
52 60
52 63
52 91
52 92
52 131
52 151
52 156
52 185
52 194
52 230
52 243
52 254
52 306
52 314
52 320
52 345
52 356
52 358
52 361
52 380
52 389
52 394
52 398
52 420
52 432
52 433
52 468
52 482
53 85
53 102
53 122
53 144
53 151
53 163
53 186
53 200
53 208
53 218
53 222
53 227
53 240
53 247
53 281
53 293
53 335
53 347
53 353
53 360
53 397
53 400
53 410
53 411
53 423
53 442
53 460
53 472
53 479
53 485
53 493
54 58
54 82
54 88
54 144
54 181
54 207
54 229
54 233
54 237
54 251
54 270
54 277
54 284
54 285
54 286
54 289
54 298
54 307
54 329
54 334
54 336
54 348
54 356
54 361
54 365
54 384
54 388
54 395
54 435
54 437
54 457
54 465
54 472
54 476
54 496
55 69
55 96
55 111
55 169
55 171
55 187
55 193
55 198
55 213
55 235
55 278
55 280
55 295
55 300
55 323
55 335
55 342
55 343
55 391
55 412
55 421
55 426
55 434
55 445
55 448
55 460
55 474
56 57
56 79
56 111
56 133
56 170
56 210
56 213
56 235
56 296
56 298
56 311
56 319
56 331
56 335
56 351
56 358
56 364
56 365
56 367
56 394
56 497
57 75
57 79
57 102
57 135
57 165
57 181
57 216
57 222
57 229
57 246
57 253
57 264
57 274
57 287
57 314
57 330
57 345
57 351
57 354
57 355
57 368
57 426
57 435
57 446
57 463
57 472
57 497
58 70
58 113
58 133
58 148
58 151
58 186
58 192
58 195
58 215
58 218
58 224
58 232
58 236
58 238
58 246
58 252
58 277
58 297
58 302
58 338
58 362
58 386
58 392
58 393
58 402
58 405
58 418
58 439
58 470
59 80
59 87
59 92
59 100
59 114
59 122
59 136
59 156
59 160
59 176
59 192
59 200
59 203
59 207
59 247
59 259
59 263
59 279
59 291
59 305
59 340
59 342
59 362
59 366
59 380
59 391
59 395
59 424
59 444
59 452
59 467
60 87
60 88
60 99
60 105
60 110
60 163
60 181
60 185
60 195
60 200
60 212
60 218
60 220
60 253
60 258
60 260
60 274
60 277
60 329
60 330
60 333
60 339
60 359
60 374
60 399
60 406
60 419
60 424
60 434
60 439
60 455
60 476
61 91
61 93
61 98
61 108
61 110
61 115
61 143
61 145
61 148
61 151
61 161
61 185
61 219
61 231
61 257
61 261
61 267
61 282
61 312
61 336
61 338
61 340
61 344
61 350
61 360
61 386
61 401
61 437
61 477
61 487
61 492
62 71
62 85
62 99
62 116
62 118
62 119
62 122
62 125
62 139
62 156
62 166
62 188
62 192
62 196
62 205
62 210
62 227
62 246
62 262
62 265
62 266
62 303
62 317
62 319
62 327
62 404
62 417
62 418
62 426
62 457
62 473
62 476
63 66
63 69
63 93
63 111
63 129
63 132
63 153
63 158
63 189
63 205
63 219
63 236
63 243
63 278
63 280
63 293
63 325
63 328
63 342
63 347
63 362
63 368
63 391
63 393
63 400
63 406
63 458
64 73
64 74
64 93
64 99
64 128
64 153
64 183
64 191
64 196
64 198
64 203
64 217
64 228
64 255
64 283
64 288
64 306
64 313
64 327
64 367
64 376
64 379
64 388
64 413
64 426
64 430
64 446
64 456
64 479
64 484
64 492
64 496
65 71
65 112
65 116
65 118
65 147
65 156
65 160
65 181
65 193
65 201
65 228
65 229
65 244
65 307
65 346
65 371
65 376
65 390
65 398
65 424
65 427
65 437
65 441
65 448
65 451
65 464
65 478
65 484
65 494
65 496
66 78
66 88
66 127
66 147
66 154
66 182
66 198
66 214
66 235
66 256
66 265
66 326
66 332
66 353
66 369
66 404
66 406
66 407
66 421
66 435
66 491
67 90
67 92
67 95
67 137
67 140
67 145
67 152
67 232
67 263
67 286
67 287
67 301
67 338
67 358
67 365
67 367
67 395
67 419
67 421
67 434
67 437
67 477
67 484
68 78
68 90
68 120
68 147
68 150
68 152
68 158
68 161
68 162
68 194
68 208
68 231
68 240
68 242
68 255
68 257
68 258
68 301
68 304
68 306
68 326
68 359
68 378
68 381
68 405
68 419
68 423
68 450
68 462
68 467
68 472
68 476
68 481
68 486
69 98
69 99
69 111
69 121
69 127
69 130
69 133
69 149
69 150
69 151
69 156
69 162
69 163
69 171
69 186
69 216
69 248
69 262
69 277
69 294
69 301
69 309
69 311
69 316
69 319
69 321
69 328
69 345
69 347
69 372
69 386
69 397
69 408
69 410
69 414
69 447
69 449
69 455
69 462
69 482
70 113
70 115
70 143
70 162
70 174
70 184
70 191
70 197
70 201
70 236
70 245
70 267
70 274
70 283
70 300
70 324
70 327
70 329
70 331
70 341
70 349
70 363
70 367
70 379
70 380
70 387
70 401
70 405
70 414
70 420
70 424
70 428
70 432
70 469
70 474
70 486
70 488
70 490
70 496
70 497
71 91
71 95
71 102
71 107
71 121
71 139
71 149
71 152
71 167
71 170
71 174
71 178
71 183
71 195
71 205
71 245
71 275
71 291
71 306
71 331
71 333
71 339
71 345
71 373
71 375
71 399
71 422
71 430
71 434
71 443
71 453
71 472
71 477
71 486
72 79
72 114
72 146
72 147
72 180
72 228
72 237
72 258
72 282
72 285
72 338
72 354
72 358
72 362
72 418
72 428
72 441
72 443
72 446
72 451
72 457
72 471
72 475
72 483
73 96
73 119
73 125
73 146
73 196
73 212
73 218
73 227
73 237
73 244
73 259
73 267
73 269
73 285
73 288
73 290
73 293
73 344
73 369
73 380
73 392
73 400
73 401
73 408
73 436
73 453
73 461
73 476
74 104
74 120
74 125
74 138
74 143
74 144
74 154
74 183
74 185
74 202
74 209
74 213
74 216
74 223
74 230
74 237
74 277
74 295
74 304
74 308
74 312
74 314
74 329
74 350
74 354
74 365
74 393
74 402
74 405
74 412
74 427
74 453
74 458
74 462
74 467
74 477
75 77
75 103
75 130
75 139
75 179
75 194
75 204
75 228
75 237
75 239
75 247
75 248
75 271
75 293
75 298
75 351
75 360
75 363
75 374
75 394
75 407
75 424
75 428
75 446
75 447
75 451
75 482
75 483
75 495
76 78
76 116
76 118
76 156
76 161
76 165
76 177
76 191
76 192
76 195
76 199
76 205
76 214
76 227
76 231
76 235
76 242
76 253
76 284
76 287
76 292
76 294
76 302
76 304
76 307
76 313
76 325
76 356
76 358
76 382
76 388
76 409
76 414
76 444
76 462
76 492
77 99
77 129
77 145
77 171
77 181
77 210
77 257
77 274
77 283
77 299
77 301
77 327
77 338
77 347
77 390
77 392
77 406
77 413
77 420
77 429
77 433
77 450
77 451
77 456
77 458
77 467
77 482
77 486
77 493
78 94
78 99
78 131
78 149
78 167
78 199
78 206
78 211
78 228
78 229
78 239
78 243
78 256
78 260
78 284
78 304
78 305
78 321
78 330
78 333
78 343
78 424
78 427
78 444
78 459
78 464
78 477
79 82
79 103
79 125
79 129
79 140
79 158
79 200
79 202
79 228
79 230
79 233
79 239
79 249
79 274
79 276
79 283
79 296
79 301
79 306
79 308
79 323
79 331
79 337
79 357
79 359
79 363
79 393
79 407
79 425
79 453
79 456
79 457
79 458
80 81
80 87
80 104
80 106
80 141
80 155
80 163
80 175
80 219
80 224
80 226
80 233
80 238
80 252
80 290
80 293
80 310
80 331
80 391
80 402
80 410
80 415
80 433
80 435
80 438
80 448
80 454
80 455
80 461
80 464
80 468
80 494
81 87
81 101
81 120
81 122
81 142
81 144
81 156
81 207
81 220
81 222
81 235
81 250
81 254
81 281
81 282
81 295
81 315
81 321
81 327
81 331
81 342
81 361
81 362
81 368
81 374
81 382
81 385
81 408
81 441
81 460
81 463
82 105
82 108
82 116
82 126
82 141
82 161
82 166
82 182
82 190
82 202
82 214
82 239
82 246
82 264
82 277
82 279
82 293
82 303
82 307
82 308
82 315
82 327
82 329
82 343
82 358
82 366
82 389
82 395
82 408
82 422
82 435
82 437
82 468
83 86
83 113
83 118
83 136
83 162
83 172
83 174
83 193
83 195
83 200
83 210
83 250
83 274
83 290
83 295
83 305
83 312
83 321
83 343
83 346
83 347
83 363
83 399
83 426
83 427
83 452
83 460
83 474
84 93
84 106
84 116
84 139
84 142
84 144
84 158
84 177
84 182
84 208
84 240
84 265
84 276
84 282
84 301
84 314
84 317
84 339
84 352
84 359
84 367
84 370
84 394
84 410
84 415
84 455
84 495
84 498
85 86
85 101
85 105
85 126
85 133
85 138
85 140
85 162
85 196
85 197
85 201
85 203
85 215
85 231
85 252
85 264
85 275
85 295
85 339
85 344
85 348
85 373
85 383
86 107
86 120
86 137
86 167
86 169
86 177
86 182
86 213
86 222
86 242
86 260
86 290
86 308
86 320
86 332
86 335
86 346
86 378
86 381
86 383
86 395
86 439
86 483
86 485
87 109
87 135
87 139
87 144
87 148
87 153
87 158
87 170
87 192
87 208
87 215
87 227
87 236
87 252
87 268
87 270
87 277
87 279
87 294
87 295
87 311
87 325
87 329
87 344
87 346
87 355
87 357
87 366
87 370
87 384
87 420
87 449
87 458
87 467
87 475
88 104
88 106
88 129
88 160
88 184
88 203
88 228
88 234
88 237
88 244
88 247
88 248
88 253
88 256
88 262
88 282
88 293
88 302
88 328
88 354
88 378
88 391
88 400
88 408
88 425
88 428
88 486
88 490
88 493
89 114
89 139
89 143
89 245
89 272
89 332
89 385
89 388
89 411
89 426
89 432
89 437
89 442
89 446
89 467
89 479
89 483
90 94
90 114
90 198
90 205
90 213
90 215
90 235
90 252
90 253
90 259
90 269
90 271
90 297
90 298
90 313
90 323
90 328
90 329
90 337
90 346
90 353
90 362
90 379
90 392
90 393
90 399
90 460
90 464
90 470
90 476
90 484
90 487
91 104
91 124
91 135
91 140
91 183
91 185
91 221
91 226
91 252
91 265
91 266
91 270
91 272
91 273
91 276
91 293
91 305
91 324
91 326
91 333
91 342
91 351
91 362
91 379
91 392
91 403
91 414
91 427
91 434
91 497
91 498
92 122
92 127
92 151
92 156
92 166
92 169
92 172
92 194
92 197
92 199
92 222
92 229
92 248
92 264
92 268
92 283
92 297
92 317
92 319
92 350
92 365
92 369
92 388
92 404
92 427
92 457
93 133
93 138
93 159
93 178
93 225
93 241
93 244
93 269
93 281
93 326
93 334
93 346
93 348
93 364
93 371
93 373
93 443
93 447
93 459
93 467
93 471
93 493
93 499
94 100
94 104
94 124
94 132
94 148
94 161
94 183
94 184
94 210
94 238
94 251
94 253
94 293
94 309
94 313
94 317
94 321
94 322
94 324
94 330
94 331
94 338
94 340
94 364
94 394
94 421
94 439
94 456
94 491
94 492
95 105
95 113
95 118
95 128
95 132
95 167
95 172
95 178
95 209
95 217
95 218
95 229
95 236
95 243
95 269
95 293
95 296
95 304
95 324
95 340
95 344
95 352
95 371
95 373
95 384
95 393
95 411
95 417
95 421
95 453
95 456
95 459
95 470
95 488
96 116
96 121
96 146
96 149
96 157
96 159
96 169
96 186
96 192
96 197
96 223
96 227
96 280
96 285
96 295
96 300
96 307
96 349
96 350
96 380
96 414
96 419
96 438
96 467
96 478
96 488
97 119
97 122
97 126
97 128
97 138
97 148
97 176
97 192
97 202
97 205
97 223
97 233
97 263
97 278
97 302
97 342
97 359
97 365
97 370
97 380
97 405
97 408
97 425
97 427
97 435
97 441
97 443
97 462
97 465
97 496
98 99
98 114
98 129
98 162
98 168
98 201
98 211
98 224
98 272
98 285
98 308
98 309
98 343
98 358
98 373
98 383
98 388
98 391
98 403
98 407
98 422
98 428
98 460
98 472
99 119
99 132
99 133
99 177
99 192
99 217
99 220
99 231
99 234
99 236
99 239
99 246
99 251
99 270
99 271
99 318
99 320
99 339
99 346
99 360
99 379
99 399
99 408
99 409
99 420
99 422
99 446
99 462
99 464
99 465
99 469
99 473
100 108
100 121
100 123
100 131
100 139
100 145
100 157
100 162
100 168
100 176
100 190
100 228
100 233
100 238
100 242
100 256
100 321
100 322
100 327
100 346
100 350
100 377
100 380
100 385
100 393
100 398
100 404
100 410
100 415
100 425
100 426
100 450
100 455
100 477
100 488
100 491
101 124
101 146
101 156
101 164
101 192
101 197
101 211
101 238
101 247
101 273
101 296
101 301
101 305
101 319
101 329
101 350
101 356
101 390
101 406
101 417
101 451
101 455
101 459
101 463
101 470
101 478
102 105
102 122
102 142
102 164
102 165
102 204
102 207
102 225
102 288
102 308
102 319
102 331
102 339
102 380
102 382
102 391
102 404
102 411
102 413
102 428
102 434
102 439
102 458
102 483
102 491
102 496
103 126
103 138
103 163
103 167
103 180
103 183
103 189
103 193
103 200
103 205
103 221
103 224
103 239
103 241
103 252
103 253
103 264
103 267
103 287
103 300
103 306
103 320
103 355
103 360
103 365
103 367
103 376
103 382
103 401
103 421
103 425
103 433
103 456
103 467
103 480
104 125
104 181
104 218
104 220
104 224
104 256
104 269
104 274
104 300
104 302
104 315
104 340
104 351
104 388
104 421
104 431
104 465
104 483
105 169
105 203
105 243
105 273
105 281
105 302
105 315
105 318
105 323
105 331
105 341
105 345
105 364
105 371
105 379
105 380
105 385
105 413
105 420
105 462
105 470
105 490
106 122
106 132
106 141
106 143
106 173
106 187
106 211
106 227
106 232
106 257
106 272
106 276
106 288
106 289
106 331
106 335
106 340
106 341
106 351
106 361
106 378
106 419
106 423
106 426
106 450
106 494
107 109
107 123
107 139
107 151
107 165
107 166
107 204
107 212
107 239
107 240
107 248
107 264
107 282
107 293
107 325
107 328
107 332
107 335
107 337
107 343
107 344
107 345
107 360
107 372
107 380
107 386
107 387
107 401
107 406
107 417
107 428
107 431
107 451
107 461
107 478
107 480
108 114
108 119
108 124
108 126
108 130
108 137
108 156
108 172
108 178
108 193
108 195
108 230
108 233
108 253
108 257
108 266
108 281
108 287
108 294
108 308
108 377
108 383
108 397
108 400
108 406
108 407
108 411
108 422
108 425
108 429
108 439
108 450
108 483
109 111
109 130
109 135
109 156
109 161
109 166
109 173
109 174
109 177
109 178
109 182
109 191
109 196
109 204
109 211
109 227
109 279
109 283
109 292
109 300
109 315
109 321
109 334
109 342
109 352
109 358
109 365
109 377
109 380
109 402
109 407
109 422
109 426
109 464
109 465
110 127
110 129
110 147
110 181
110 187
110 234
110 239
110 258
110 269
110 274
110 279
110 280
110 293
110 315
110 318
110 335
110 344
110 345
110 355
110 374
110 379
110 389
110 396
110 399
110 403
110 436
110 442
110 496
111 114
111 123
111 125
111 131
111 139
111 179
111 200
111 231
111 273
111 274
111 295
111 308
111 310
111 352
111 354
111 358
111 373
111 395
111 397
111 409
111 487
111 494
112 114
112 115
112 118
112 123
112 142
112 166
112 213
112 217
112 223
112 230
112 231
112 232
112 237
112 238
112 256
112 283
112 297
112 309
112 326
112 346
112 347
112 364
112 366
112 377
112 380
112 418
112 423
112 425
112 429
112 431
112 442
112 450
112 470
112 476
112 485
112 492
113 124
113 127
113 136
113 144
113 151
113 152
113 153
113 155
113 189
113 234
113 242
113 245
113 259
113 277
113 280
113 290
113 304
113 321
113 325
113 327
113 354
113 368
113 428
113 439
113 441
113 450
113 466
113 468
113 471
113 497
114 139
114 147
114 151
114 153
114 157
114 178
114 182
114 193
114 219
114 226
114 228
114 254
114 262
114 272
114 299
114 306
114 311
114 327
114 338
114 368
114 372
114 384
114 385
114 386
114 389
114 410
114 412
114 467
114 484
114 486
114 491
115 119
115 150
115 157
115 168
115 170
115 202
115 206
115 231
115 258
115 267
115 277
115 298
115 319
115 321
115 326
115 328
115 337
115 339
115 386
115 388
115 424
115 474
115 483
115 491
115 492
115 494
116 123
116 124
116 161
116 163
116 164
116 189
116 209
116 232
116 233
116 238
116 240
116 258
116 285
116 292
116 294
116 301
116 316
116 326
116 337
116 374
116 381
116 403
116 405
116 429
116 432
116 438
116 445
116 447
116 449
116 452
116 467
116 475
116 476
116 483
117 119
117 123
117 156
117 168
117 196
117 215
117 265
117 277
117 288
117 298
117 305
117 308
117 320
117 331
117 344
117 365
117 369
117 371
117 389
117 404
117 449
117 464
117 483
117 497
118 128
118 165
118 167
118 193
118 208
118 210
118 217
118 224
118 247
118 253
118 272
118 281
118 300
118 303
118 305
118 340
118 342
118 350
118 358
118 370
118 385
118 392
118 404
118 424
118 453
118 456
118 481
118 487
118 497
119 157
119 161
119 183
119 187
119 188
119 212
119 247
119 253
119 263
119 266
119 282
119 293
119 362
119 369
119 388
119 393
119 407
119 408
119 410
119 419
119 435
119 439
119 464
119 474
119 476
119 497
120 124
120 150
120 225
120 234
120 240
120 255
120 312
120 328
120 330
120 351
120 360
120 364
120 401
120 407
120 430
120 433
120 438
120 477
120 480
120 484
120 495
121 151
121 155
121 163
121 170
121 182
121 192
121 209
121 218
121 223
121 225
121 232
121 235
121 241
121 274
121 300
121 366
121 397
121 430
121 496
122 129
122 155
122 178
122 182
122 190
122 207
122 215
122 241
122 243
122 252
122 258
122 274
122 319
122 322
122 323
122 332
122 363
122 369
122 373
122 377
122 397
122 399
122 401
122 409
122 455
122 456
122 461
122 490
123 124
123 137
123 140
123 157
123 180
123 191
123 198
123 201
123 209
123 217
123 233
123 249
123 269
123 271
123 280
123 295
123 301
123 319
123 343
123 378
123 397
123 418
123 422
123 426
123 428
123 431
123 486
123 496
124 144
124 148
124 193
124 206
124 221
124 228
124 231
124 244
124 246
124 260
124 265
124 267
124 270
124 297
124 305
124 309
124 317
124 328
124 340
124 342
124 364
124 377
124 383
124 399
124 430
124 440
124 447
124 460
124 469
124 489
125 170
125 188
125 203
125 204
125 221
125 236
125 237
125 270
125 287
125 290
125 300
125 302
125 311
125 321
125 322
125 332
125 339
125 341
125 364
125 377
125 383
125 397
125 430
125 447
125 453
125 470
125 476
125 477
125 486
126 146
126 159
126 164
126 165
126 197
126 202
126 221
126 262
126 283
126 285
126 289
126 296
126 310
126 312
126 319
126 339
126 364
126 402
126 428
126 442
126 444
126 480
126 489
126 490
127 158
127 203
127 223
127 226
127 235
127 254
127 271
127 283
127 292
127 293
127 309
127 321
127 336
127 348
127 360
127 372
127 399
127 412
127 416
127 489
128 134
128 135
128 146
128 153
128 157
128 162
128 177
128 224
128 238
128 253
128 269
128 270
128 275
128 309
128 349
128 376
128 401
128 403
128 421
128 450
128 452
128 481
128 485
128 487
128 492
129 135
129 144
129 167
129 173
129 189
129 197
129 213
129 217
129 228
129 231
129 239
129 259
129 283
129 284
129 285
129 311
129 331
129 347
129 351
129 396
129 402
129 419
129 420
129 423
129 429
129 431
129 433
129 447
129 473
129 479
130 156
130 172
130 189
130 213
130 250
130 251
130 265
130 267
130 270
130 285
130 289
130 292
130 297
130 316
130 350
130 359
130 380
130 400
130 409
130 412
130 415
130 440
130 458
130 460
130 464
130 480
131 141
131 142
131 153
131 169
131 178
131 184
131 195
131 197
131 202
131 208
131 210
131 211
131 248
131 302
131 348
131 395
131 403
131 429
131 436
131 441
131 452
131 460
131 485
132 134
132 138
132 164
132 201
132 223
132 293
132 296
132 331
132 357
132 358
132 366
132 390
132 397
132 462
132 471
132 476
132 496
132 498
133 176
133 184
133 189
133 217
133 223
133 250
133 251
133 256
133 267
133 276
133 285
133 288
133 297
133 305
133 315
133 318
133 336
133 337
133 342
133 375
133 390
133 394
133 395
133 400
133 407
133 409
133 413
133 422
133 424
133 432
133 468
133 473
133 485
134 142
134 161
134 178
134 180
134 196
134 200
134 212
134 214
134 272
134 279
134 304
134 311
134 315
134 316
134 362
134 365
134 376
134 381
134 385
134 389
134 404
134 408
134 427
134 435
134 465
135 140
135 158
135 159
135 167
135 180
135 189
135 198
135 205
135 209
135 230
135 232
135 239
135 265
135 289
135 313
135 326
135 330
135 355
135 363
135 369
135 404
135 409
135 415
135 416
135 425
135 441
135 445
135 466
135 498
136 156
136 165
136 169
136 223
136 231
136 235
136 243
136 247
136 250
136 277
136 297
136 301
136 393
136 404
136 421
136 424
136 431
136 469
136 485
137 152
137 161
137 170
137 177
137 183
137 225
137 260
137 263
137 268
137 274
137 287
137 296
137 370
137 371
137 379
137 404
137 406
137 473
137 477
137 489
138 140
138 158
138 167
138 176
138 195
138 209
138 215
138 221
138 231
138 260
138 272
138 274
138 283
138 293
138 314
138 315
138 341
138 358
138 364
138 370
138 377
138 393
138 414
138 431
138 434
138 437
138 446
138 451
138 477
138 481
138 494
138 497
138 499
139 149
139 158
139 164
139 170
139 179
139 190
139 203
139 206
139 236
139 275
139 292
139 302
139 323
139 337
139 344
139 345
139 369
139 373
139 374
139 404
139 405
139 409
139 416
139 473
139 474
139 475
140 147
140 156
140 160
140 162
140 177
140 185
140 188
140 189
140 190
140 222
140 232
140 253
140 265
140 307
140 311
140 336
140 363
140 387
140 404
140 405
140 429
140 444
140 452
140 464
141 170
141 179
141 187
141 214
141 218
141 236
141 253
141 257
141 266
141 303
141 315
141 321
141 322
141 352
141 358
141 372
141 374
141 411
141 422
141 427
141 428
141 451
141 456
141 461
141 469
141 472
142 162
142 173
142 180
142 193
142 200
142 205
142 208
142 233
142 248
142 274
142 275
142 278
142 284
142 294
142 296
142 305
142 312
142 332
142 346
142 357
142 371
142 381
142 385
142 432
142 439
142 445
142 448
142 454
142 457
142 458
142 462
142 466
142 470
142 471
142 472
142 483
142 485
143 153
143 161
143 170
143 204
143 217
143 222
143 228
143 230
143 235
143 236
143 239
143 241
143 242
143 244
143 250
143 255
143 267
143 278
143 296
143 307
143 313
143 316
143 346
143 359
143 365
143 425
143 433
143 455
143 494
144 145
144 146
144 152
144 163
144 193
144 209
144 226
144 285
144 308
144 323
144 327
144 351
144 364
144 368
144 383
144 391
144 392
144 394
144 424
144 438
144 439
144 440
144 457
144 461
144 465
144 471
144 474
144 478
144 485
144 488
144 494
145 157
145 162
145 164
145 172
145 188
145 213
145 261
145 284
145 296
145 321
145 336
145 349
145 380
145 392
145 395
145 396
145 413
145 438
145 446
145 455
145 456
145 466
145 469
146 150
146 183
146 203
146 245
146 259
146 273
146 314
146 329
146 337
146 375
146 383
146 389
146 395
146 400
146 420
146 436
146 438
146 439
146 469
146 470
146 473
146 493
146 495
146 498
147 160
147 168
147 209
147 216
147 233
147 238
147 241
147 288
147 300
147 320
147 322
147 332
147 334
147 366
147 370
147 393
147 415
147 420
147 470
147 476
147 489
148 167
148 183
148 196
148 197
148 206
148 215
148 252
148 260
148 306
148 314
148 328
148 334
148 338
148 340
148 343
148 349
148 369
148 394
148 428
148 471
148 479
148 495
149 156
149 160
149 165
149 184
149 195
149 205
149 212
149 213
149 214
149 257
149 303
149 321
149 354
149 368
149 375
149 396
149 410
149 418
149 426
149 427
149 446
149 448
149 450
149 487
149 496
150 155
150 160
150 179
150 204
150 259
150 271
150 278
150 290
150 319
150 328
150 329
150 337
150 340
150 371
150 374
150 389
150 396
150 398
150 408
150 415
150 429
150 480
150 483
150 486
150 488
150 490
151 160
151 167
151 181
151 209
151 220
151 224
151 273
151 280
151 303
151 309
151 311
151 312
151 343
151 362
151 363
151 378
151 448
151 449
151 466
151 473
151 482
151 499
152 177
152 190
152 195
152 240
152 243
152 258
152 260
152 283
152 285
152 313
152 317
152 335
152 345
152 353
152 357
152 394
152 417
152 426
152 443
152 463
152 464
152 471
152 486
152 495
152 496
152 497
153 175
153 181
153 183
153 234
153 246
153 258
153 261
153 265
153 268
153 271
153 272
153 292
153 314
153 336
153 358
153 359
153 376
153 381
153 397
153 411
153 415
153 432
153 446
153 459
153 471
153 477
154 164
154 181
154 203
154 214
154 220
154 226
154 234
154 246
154 277
154 299
154 300
154 315
154 379
154 388
154 404
154 423
154 438
154 481
154 484
155 232
155 256
155 262
155 294
155 296
155 302
155 312
155 360
155 373
155 380
155 408
155 412
155 413
155 433
155 434
155 438
155 447
155 497
155 499
156 189
156 195
156 201
156 230
156 236
156 241
156 267
156 272
156 275
156 317
156 333
156 347
156 357
156 379
156 392
156 429
156 470
156 474
156 479
156 495
157 164
157 205
157 254
157 265
157 266
157 280
157 292
157 295
157 298
157 310
157 339
157 340
157 362
157 380
157 386
157 397
157 409
157 411
157 426
157 428
157 448
157 476
158 172
158 203
158 207
158 231
158 246
158 258
158 283
158 284
158 324
158 325
158 343
158 346
158 354
158 365
158 389
158 399
158 416
158 445
158 466
159 161
159 167
159 170
159 180
159 189
159 196
159 204
159 222
159 234
159 243
159 254
159 256
159 264
159 304
159 323
159 345
159 414
159 442
159 451
159 459
159 475
159 487
160 162
160 171
160 184
160 219
160 245
160 247
160 309
160 315
160 335
160 357
160 360
160 380
160 397
160 400
160 406
160 427
160 429
160 436
160 440
160 442
160 477
160 489
160 495
161 164
161 178
161 180
161 185
161 217
161 223
161 224
161 242
161 248
161 249
161 291
161 305
161 340
161 350
161 353
161 361
161 391
161 400
161 402
161 406
161 418
161 427
161 435
161 441
161 442
161 443
161 457
161 461
161 464
161 473
161 479
161 488
162 184
162 186
162 201
162 217
162 219
162 222
162 223
162 226
162 247
162 266
162 269
162 287
162 300
162 311
162 322
162 342
162 378
162 391
162 409
162 428
162 444
162 458
162 478
163 184
163 196
163 210
163 221
163 235
163 252
163 266
163 268
163 270
163 272
163 291
163 310
163 321
163 361
163 370
163 389
163 394
163 406
163 410
163 411
163 420
163 454
163 460
163 468
163 491
163 494
164 176
164 177
164 203
164 232
164 235
164 245
164 292
164 304
164 377
164 397
164 408
164 419
164 456
164 478
164 493
164 499
165 187
165 192
165 199
165 265
165 276
165 286
165 301
165 303
165 307
165 334
165 345
165 370
165 379
165 396
165 397
165 411
165 424
166 206
166 238
166 245
166 251
166 267
166 308
166 333
166 337
166 340
166 342
166 362
166 367
166 381
166 394
166 396
166 401
166 456
166 470
166 473
166 486
167 173
167 176
167 206
167 212
167 228
167 235
167 256
167 277
167 290
167 313
167 329
167 338
167 379
167 391
167 392
167 423
167 445
167 497
168 171
168 210
168 222
168 254
168 287
168 299
168 300
168 319
168 324
168 331
168 339
168 370
168 373
168 404
168 405
168 430
168 444
168 447
168 460
168 474
168 483
168 484
168 491
169 179
169 181
169 189
169 196
169 220
169 235
169 239
169 246
169 251
169 259
169 271
169 286
169 288
169 290
169 342
169 344
169 357
169 388
169 403
169 406
169 419
169 421
169 431
169 437
169 482
170 214
170 223
170 239
170 242
170 244
170 252
170 274
170 290
170 302
170 327
170 332
170 333
170 338
170 358
170 360
170 425
170 433
170 454
170 484
170 491
171 174
171 221
171 247
171 254
171 293
171 315
171 322
171 328
171 338
171 342
171 370
171 389
171 396
171 476
172 185
172 196
172 208
172 233
172 245
172 276
172 290
172 298
172 302
172 328
172 348
172 356
172 367
172 413
172 415
172 423
172 441
172 445
172 446
172 447
173 175
173 176
173 178
173 184
173 187
173 190
173 200
173 224
173 256
173 261
173 294
173 296
173 297
173 303
173 349
173 371
173 402
173 433
173 441
173 452
173 457
173 470
173 492
173 497
174 189
174 204
174 206
174 209
174 212
174 215
174 230
174 237
174 260
174 263
174 274
174 296
174 305
174 308
174 311
174 320
174 329
174 349
174 354
174 375
174 402
174 406
174 413
174 422
174 430
174 446
174 448
174 493
175 201
175 215
175 217
175 221
175 237
175 278
175 292
175 317
175 347
175 356
175 369
175 395
175 416
175 426
175 437
175 474
175 477
175 486
175 497
176 199
176 232
176 252
176 274
176 277
176 298
176 315
176 317
176 330
176 385
176 412
176 420
176 439
176 451
176 474
176 493
177 185
177 201
177 230
177 237
177 247
177 266
177 284
177 303
177 307
177 316
177 321
177 366
177 370
177 377
177 383
177 395
177 410
177 413
177 469
177 487
177 489
177 492
178 194
178 213
178 233
178 235
178 240
178 253
178 260
178 268
178 271
178 287
178 301
178 323
178 340
178 344
178 361
178 393
178 406
178 425
178 429
178 435
178 496
179 183
179 231
179 260
179 286
179 304
179 308
179 314
179 346
179 352
179 355
179 396
179 407
179 413
179 420
179 462
179 463
179 479
179 487
180 198
180 210
180 223
180 225
180 228
180 248
180 298
180 305
180 311
180 317
180 332
180 362
180 387
180 408
180 418
180 426
180 463
180 481
180 483
180 486
180 492
181 201
181 213
181 248
181 249
181 257
181 295
181 301
181 305
181 311
181 312
181 315
181 323
181 326
181 332
181 367
181 369
181 395
181 398
181 429
181 449
181 466
181 468
181 475
181 476
181 482
182 185
182 197
182 312
182 350
182 357
182 367
182 368
182 385
182 426
182 432
182 474
182 495
182 498
183 201
183 205
183 206
183 220
183 223
183 247
183 252
183 290
183 291
183 297
183 298
183 303
183 307
183 325
183 328
183 330
183 331
183 335
183 336
183 347
183 371
183 377
183 391
183 408
183 410
183 425
183 482
183 490
184 208
184 233
184 239
184 257
184 266
184 272
184 275
184 293
184 310
184 344
184 346
184 359
184 393
184 400
184 401
184 408
184 424
184 456
184 462
184 472
184 483
185 207
185 210
185 215
185 223
185 262
185 264
185 273
185 296
185 316
185 327
185 355
185 358
185 369
185 376
185 423
185 432
185 445
185 483
186 201
186 206
186 212
186 213
186 214
186 226
186 238
186 262
186 270
186 282
186 314
186 325
186 330
186 333
186 342
186 352
186 359
186 385
186 486
186 488
187 193
187 207
187 224
187 225
187 255
187 274
187 368
187 407
187 418
187 419
187 429
187 454
187 458
187 467
187 473
187 482
187 497
188 219
188 254
188 258
188 266
188 274
188 305
188 308
188 316
188 331
188 335
188 339
188 340
188 355
188 371
188 383
188 396
188 412
188 426
188 437
188 451
188 452
188 461
188 463
188 464
188 468
188 480
188 484
188 493
189 193
189 195
189 196
189 201
189 206
189 218
189 241
189 243
189 255
189 265
189 267
189 273
189 332
189 340
189 355
189 362
189 377
189 412
189 430
189 446
189 466
189 467
189 479
190 193
190 203
190 223
190 229
190 281
190 310
190 316
190 319
190 374
190 397
190 409
190 463
190 492
190 497
191 196
191 199
191 202
191 230
191 238
191 249
191 253
191 258
191 278
191 302
191 323
191 324
191 353
191 366
191 379
191 394
191 399
191 414
191 424
191 450
191 465
191 469
192 201
192 205
192 211
192 213
192 215
192 258
192 262
192 269
192 282
192 290
192 301
192 303
192 309
192 331
192 342
192 357
192 364
192 368
192 372
192 375
192 391
192 397
192 410
192 416
192 418
192 425
192 444
192 449
192 454
192 462
192 463
192 469
192 495
193 196
193 204
193 206
193 211
193 226
193 237
193 241
193 246
193 302
193 303
193 312
193 318
193 361
193 377
193 391
193 406
193 428
193 438
193 450
193 469
193 478
193 480
193 494
193 495
194 211
194 219
194 236
194 258
194 277
194 281
194 287
194 297
194 301
194 302
194 322
194 343
194 347
194 372
194 402
194 421
194 424
194 431
194 442
194 445
194 454
194 470
194 477
194 497
195 230
195 238
195 290
195 312
195 327
195 343
195 356
195 366
195 374
195 380
195 384
195 390
195 415
195 434
195 458
195 463
195 464
195 494
196 210
196 218
196 221
196 229
196 266
196 279
196 290
196 301
196 309
196 310
196 338
196 342
196 360
196 363
196 406
196 410
196 445
196 457
196 471
196 486
196 489
197 201
197 210
197 215
197 242
197 254
197 284
197 314
197 320
197 321
197 335
197 339
197 356
197 357
197 367
197 376
197 396
197 413
197 420
197 427
197 432
197 435
197 464
197 467
197 474
197 482
197 493
198 211
198 225
198 244
198 250
198 265
198 268
198 269
198 273
198 306
198 313
198 319
198 347
198 370
198 373
198 384
198 397
198 403
198 404
198 442
198 453
198 466
198 479
199 220
199 241
199 261
199 262
199 272
199 303
199 307
199 338
199 362
199 366
199 380
199 385
199 388
199 408
199 422
199 435
200 206
200 222
200 229
200 231
200 235
200 243
200 250
200 269
200 289
200 333
200 354
200 371
200 382
200 384
200 387
200 401
200 440
200 445
200 484
200 487
200 488
201 235
201 247
201 250
201 252
201 269
201 271
201 273
201 286
201 288
201 302
201 327
201 328
201 332
201 333
201 351
201 360
201 365
201 372
201 385
201 421
201 458
201 464
201 466
201 487
202 208
202 229
202 243
202 245
202 248
202 255
202 264
202 280
202 293
202 311
202 316
202 356
202 362
202 373
202 375
202 384
202 402
202 408
202 424
202 445
202 480
203 204
203 210
203 216
203 221
203 240
203 264
203 274
203 316
203 347
203 352
203 358
203 418
203 438
203 440
203 450
203 452
203 455
203 456
203 458
203 468
203 471
204 209
204 212
204 263
204 267
204 290
204 307
204 321
204 323
204 326
204 338
204 344
204 371
204 376
204 377
204 406
204 409
204 412
204 422
204 427
204 434
204 479
204 485
205 222
205 223
205 236
205 286
205 289
205 295
205 310
205 326
205 334
205 394
205 400
205 422
205 436
205 459
205 466
205 480
205 491
206 213
206 225
206 278
206 285
206 296
206 301
206 316
206 319
206 323
206 360
206 363
206 365
206 367
206 410
206 423
206 449
206 466
206 467
206 475
206 477
206 499
207 218
207 246
207 258
207 260
207 277
207 311
207 312
207 315
207 317
207 323
207 333
207 338
207 347
207 355
207 363
207 377
207 404
207 409
207 431
207 434
207 438
207 451
207 496
208 222
208 223
208 247
208 248
208 284
208 287
208 296
208 321
208 328
208 387
208 401
208 417
208 490
208 491
208 495
209 216
209 218
209 225
209 255
209 276
209 280
209 282
209 287
209 322
209 324
209 327
209 341
209 346
209 351
209 365
209 372
209 407
209 411
209 418
209 424
209 456
209 470
209 492
209 499
210 216
210 221
210 281
210 283
210 291
210 295
210 312
210 319
210 325
210 337
210 338
210 344
210 361
210 362
210 368
210 377
210 379
210 410
210 418
210 452
210 460
210 461
210 484
211 226
211 259
211 284
211 289
211 294
211 299
211 338
211 346
211 357
211 378
211 385
211 402
211 425
211 436
211 451
211 465
211 485
211 497
212 221
212 239
212 245
212 249
212 252
212 255
212 263
212 272
212 299
212 327
212 367
212 414
212 423
212 433
212 454
212 460
212 463
212 477
213 216
213 220
213 244
213 247
213 248
213 255
213 278
213 300
213 303
213 318
213 334
213 347
213 365
213 370
213 380
213 394
213 398
213 408
213 417
213 426
213 436
213 458
213 479
214 215
214 230
214 231
214 240
214 244
214 247
214 268
214 274
214 287
214 304
214 310
214 345
214 353
214 355
214 366
214 386
214 389
214 394
214 408
214 418
214 424
214 434
214 445
214 452
214 463
214 466
214 484
214 485
214 496
215 218
215 244
215 250
215 258
215 259
215 290
215 306
215 326
215 350
215 351
215 357
215 379
215 386
215 390
215 398
215 402
215 438
215 440
215 448
215 469
215 471
216 256
216 294
216 308
216 329
216 334
216 348
216 388
216 405
216 415
216 462
216 467
216 472
217 218
217 231
217 235
217 254
217 279
217 287
217 306
217 314
217 327
217 346
217 366
217 368
217 394
217 408
217 419
217 437
217 453
218 228
218 242
218 248
218 254
218 265
218 271
218 283
218 302
218 305
218 331
218 405
218 406
218 418
218 422
218 443
218 460
218 463
219 225
219 245
219 246
219 301
219 306
219 319
219 391
219 414
219 427
219 447
219 463
219 480
220 230
220 235
220 257
220 260
220 287
220 289
220 300
220 325
220 331
220 337
220 400
220 407
220 436
220 439
220 471
220 477
220 484
220 486
221 231
221 235
221 241
221 246
221 258
221 275
221 281
221 291
221 315
221 318
221 322
221 327
221 333
221 342
221 345
221 355
221 362
221 379
221 402
221 434
221 447
221 452
221 479
221 480
221 492
221 493
221 494
221 499
222 230
222 241
222 242
222 278
222 279
222 280
222 286
222 304
222 346
222 374
222 380
222 389
222 440
222 447
222 471
222 474
223 234
223 240
223 298
223 315
223 317
223 323
223 335
223 357
223 358
223 374
223 376
223 384
223 387
223 388
223 441
223 475
223 477
223 486
223 496
224 225
224 237
224 269
224 275
224 285
224 292
224 317
224 349
224 372
224 384
224 406
224 422
224 454
224 456
224 476
225 226
225 231
225 238
225 239
225 256
225 271
225 300
225 331
225 332
225 335
225 338
225 344
225 361
225 386
225 405
225 415
225 444
225 461
225 466
225 469
225 496
226 231
226 242
226 296
226 325
226 340
226 350
226 361
226 393
226 410
226 428
226 440
226 461
226 468
226 484
226 489
227 236
227 252
227 295
227 304
227 315
227 329
227 341
227 344
227 351
227 371
227 376
227 380
227 404
227 441
227 493
227 499
228 277
228 295
228 297
228 342
228 360
228 363
228 371
228 374
228 375
228 377
228 382
228 383
228 385
228 396
228 433
228 486
228 497
229 237
229 246
229 254
229 340
229 367
229 377
229 386
229 389
229 407
229 416
229 429
229 435
229 440
229 466
229 478
229 480
230 243
230 266
230 298
230 309
230 318
230 324
230 367
230 394
230 395
230 398
230 427
230 430
230 468
230 483
230 486
231 236
231 242
231 288
231 304
231 309
231 317
231 334
231 373
231 380
231 391
231 398
231 403
231 419
231 421
231 427
231 481
231 499
232 233
232 238
232 261
232 288
232 311
232 317
232 324
232 329
232 344
232 374
232 377
232 400
232 403
232 411
232 414
232 447
232 474
233 245
233 268
233 284
233 318
233 358
233 367
233 399
233 401
233 411
233 415
233 439
233 457
233 459
234 238
234 251
234 256
234 261
234 279
234 298
234 299
234 321
234 378
234 392
234 414
234 422
234 429
234 430
234 434
234 440
234 454
234 466
234 474
234 481
234 486
234 494
234 495
235 258
235 265
235 270
235 291
235 335
235 346
235 355
235 363
235 394
235 403
235 451
235 453
235 484
236 256
236 269
236 280
236 286
236 288
236 298
236 330
236 333
236 346
236 347
236 393
236 396
236 407
236 413
236 415
236 446
236 451
236 475
236 484
236 487
236 491
236 492
237 240
237 264
237 267
237 269
237 270
237 292
237 325
237 331
237 359
237 362
237 386
237 402
237 404
237 409
237 415
237 425
237 426
237 428
237 434
237 475
238 252
238 272
238 303
238 314
238 316
238 328
238 339
238 357
238 359
238 381
238 396
238 460
238 471
238 493
239 255
239 281
239 282
239 309
239 338
239 339
239 348
239 354
239 356
239 359
239 368
239 385
239 449
239 467
239 490
240 251
240 273
240 277
240 279
240 332
240 336
240 337
240 380
240 381
240 386
240 394
240 399
240 402
240 405
240 412
240 419
240 449
240 469
240 476
240 496
241 246
241 289
241 333
241 351
241 391
241 401
241 413
241 416
241 425
241 461
242 245
242 260
242 270
242 293
242 317
242 329
242 372
242 408
242 426
242 438
242 443
242 444
242 446
242 448
242 456
242 479
243 293
243 306
243 309
243 348
243 367
243 381
243 382
243 390
243 414
243 416
243 423
243 430
243 437
243 443
243 484
243 496
244 262
244 297
244 298
244 306
244 307
244 323
244 332
244 342
244 345
244 365
244 459
244 465
244 479
244 485
244 486
244 497
245 246
245 255
245 269
245 271
245 280
245 297
245 303
245 314
245 316
245 336
245 344
245 389
245 395
245 412
245 425
245 428
245 436
245 460
245 468
245 473
246 249
246 260
246 264
246 301
246 316
246 326
246 335
246 341
246 342
246 351
246 371
246 390
246 402
246 411
246 438
246 441
246 458
247 250
247 258
247 260
247 269
247 287
247 288
247 299
247 300
247 311
247 317
247 328
247 336
247 359
247 376
247 415
247 419
247 435
247 440
247 462
247 477
247 481
247 488
247 491
247 494
247 495
248 250
248 266
248 275
248 277
248 323
248 329
248 360
248 371
248 380
248 389
248 394
248 397
248 400
248 421
248 429
248 439
248 441
248 443
248 465
248 475
249 255
249 270
249 275
249 278
249 293
249 306
249 308
249 363
249 379
249 401
249 412
249 413
249 417
249 438
249 454
249 456
249 486
249 490
250 282
250 295
250 313
250 343
250 346
250 360
250 377
250 406
250 429
250 453
250 462
250 463
250 485
250 486
251 287
251 301
251 318
251 337
251 356
251 361
251 362
251 374
251 377
251 383
251 402
251 406
251 420
251 426
251 453
251 467
252 267
252 270
252 296
252 311
252 314
252 396
252 400
252 438
252 473
252 474
252 478
253 258
253 273
253 277
253 285
253 290
253 300
253 324
253 330
253 332
253 364
253 394
253 400
253 404
253 421
253 428
253 443
253 449
253 458
253 490
254 256
254 279
254 283
254 298
254 300
254 349
254 354
254 359
254 364
254 372
254 377
254 386
254 448
254 449
254 468
254 472
254 473
254 476
254 480
254 491
254 493
255 259
255 260
255 293
255 294
255 295
255 297
255 311
255 322
255 359
255 371
255 376
255 380
255 383
255 403
255 431
255 496
255 498
256 257
256 261
256 267
256 273
256 296
256 299
256 348
256 354
256 368
256 380
256 386
256 387
256 413
256 414
256 464
256 465
256 470
257 271
257 276
257 277
257 291
257 308
257 319
257 335
257 336
257 347
257 356
257 360
257 361
257 367
257 387
257 398
257 411
257 420
257 463
257 493
258 264
258 268
258 278
258 284
258 310
258 315
258 321
258 337
258 341
258 363
258 371
258 392
258 413
258 418
258 442
258 444
258 478
258 494
259 277
259 300
259 318
259 320
259 333
259 334
259 342
259 381
259 392
259 393
259 398
259 429
259 439
259 466
259 471
259 480
259 488
259 491
260 278
260 309
260 318
260 331
260 343
260 366
260 386
260 396
260 407
260 423
260 424
260 461
260 466
260 478
261 269
261 279
261 280
261 284
261 297
261 314
261 332
261 336
261 337
261 339
261 359
261 367
261 372
261 375
261 391
261 431
261 432
261 439
261 469
261 487
261 490
261 499
262 275
262 281
262 292
262 316
262 331
262 334
262 341
262 347
262 352
262 359
262 373
262 401
262 406
262 420
262 430
262 431
262 433
262 454
262 458
262 467
262 476
263 267
263 313
263 331
263 356
263 419
263 430
263 437
263 443
263 445
263 458
263 461
263 495
264 278
264 307
264 320
264 333
264 346
264 384
264 396
264 416
264 424
264 447
264 466
264 470
265 270
265 300
265 312
265 313
265 317
265 320
265 333
265 337
265 345
265 347
265 351
265 361
265 373
265 383
265 386
265 462
265 466
266 287
266 290
266 308
266 360
266 362
266 382
266 406
266 429
266 436
266 439
266 443
266 455
266 463
267 269
267 304
267 327
267 337
267 375
267 376
267 383
267 421
267 423
267 447
267 460
267 469
267 476
267 477
268 280
268 289
268 323
268 361
268 370
268 384
268 387
268 399
268 406
268 433
268 437
268 446
268 472
268 478
269 295
269 307
269 318
269 329
269 343
269 357
269 360
269 365
269 366
269 375
269 377
269 432
269 465
269 475
269 489
270 272
270 301
270 308
270 324
270 334
270 341
270 352
270 355
270 361
270 362
270 366
270 374
270 380
270 410
270 411
270 418
270 485
270 492
270 497
271 280
271 287
271 298
271 322
271 327
271 342
271 356
271 359
271 395
271 410
271 416
271 420
271 456
271 466
271 467
271 494
271 497
272 278
272 288
272 305
272 317
272 339
272 365
272 385
272 398
272 413
272 419
272 437
272 442
272 466
272 477
272 493
273 297
273 301
273 306
273 310
273 316
273 323
273 335
273 349
273 362
273 363
273 370
273 380
273 382
273 383
273 399
273 409
273 418
273 440
273 456
273 458
273 463
273 498
274 280
274 307
274 336
274 350
274 357
274 360
274 362
274 365
274 398
274 410
274 420
274 426
274 443
274 452
274 465
274 480
274 484
274 498
275 281
275 292
275 310
275 331
275 350
275 355
275 356
275 377
275 403
275 437
276 286
276 303
276 315
276 344
276 351
276 429
276 445
276 463
276 477
276 479
276 480
276 499
277 284
277 293
277 306
277 328
277 361
277 384
277 402
277 414
277 422
277 479
278 283
278 285
278 293
278 325
278 341
278 346
278 350
278 355
278 374
278 375
278 383
278 395
278 397
278 424
278 439
278 457
278 479
278 481
278 488
279 280
279 299
279 305
279 323
279 335
279 358
279 364
279 370
279 411
279 424
279 491
279 494
280 292
280 298
280 313
280 327
280 338
280 377
280 378
280 402
280 441
280 451
280 484
280 485
280 487
280 494
281 307
281 309
281 325
281 327
281 346
281 349
281 362
281 374
281 378
281 379
281 396
281 402
281 420
281 445
281 449
281 471
281 474
281 476
282 290
282 298
282 305
282 318
282 321
282 358
282 361
282 366
282 392
282 395
282 405
282 430
282 443
282 461
282 463
282 471
282 476
283 293
283 302
283 333
283 341
283 359
283 365
283 371
283 380
283 396
283 415
283 425
283 433
283 446
283 453
283 464
283 466
283 470
283 484
283 486
283 495
284 291
284 312
284 313
284 326
284 332
284 354
284 366
284 386
284 421
284 431
284 442
284 451
284 484
284 491
285 297
285 339
285 348
285 375
285 391
285 406
285 409
285 419
285 428
285 472
285 486
286 293
286 296
286 298
286 300
286 305
286 321
286 324
286 336
286 344
286 351
286 352
286 365
286 373
286 381
286 393
286 414
286 441
286 447
286 465
286 466
287 310
287 392
287 408
287 409
287 412
287 426
287 429
287 431
287 443
287 456
287 463
288 295
288 311
288 312
288 322
288 342
288 349
288 354
288 355
288 368
288 375
288 380
288 391
288 409
288 420
288 438
288 452
288 456
288 476
289 292
289 296
289 297
289 311
289 317
289 318
289 354
289 365
289 372
289 396
289 402
289 408
289 410
289 426
289 433
289 472
290 291
290 301
290 313
290 320
290 329
290 331
290 337
290 341
290 350
290 353
290 376
290 387
290 408
290 410
290 429
290 430
290 449
290 461
290 466
290 477
290 486
290 492
290 494
291 310
291 350
291 361
291 378
291 381
291 392
291 403
291 413
291 415
291 446
291 464
292 297
292 309
292 315
292 325
292 328
292 329
292 342
292 366
292 375
292 399
292 484
292 489
293 296
293 302
293 334
293 337
293 338
293 362
293 366
293 401
293 428
293 430
293 474
293 484
293 493
293 495
294 310
294 318
294 329
294 333
294 337
294 361
294 365
294 413
294 432
294 459
294 463
294 491
295 319
295 328
295 334
295 345
295 365
295 370
295 376
295 385
295 394
295 425
295 447
295 472
295 478
296 319
296 378
296 395
296 408
296 420
296 429
296 440
296 441
296 484
297 303
297 318
297 337
297 339
297 365
297 369
297 385
297 388
297 411
297 420
297 471
297 485
298 313
298 319
298 320
298 335
298 352
298 360
298 363
298 408
298 418
298 441
298 447
298 453
298 492
298 493
299 310
299 322
299 332
299 344
299 355
299 374
299 378
299 381
299 417
299 427
299 444
299 461
299 462
299 470
299 474
299 479
300 308
300 319
300 325
300 328
300 342
300 397
300 420
300 428
300 465
300 488
301 306
301 318
301 329
301 332
301 337
301 347
301 374
301 377
301 380
301 393
301 415
301 423
301 430
301 437
301 442
301 450
301 470
302 338
302 356
302 369
302 377
302 385
302 402
302 409
302 420
302 428
302 463
302 475
302 476
303 308
303 310
303 325
303 337
303 349
303 356
303 364
303 366
303 412
303 438
303 452
303 481
303 498
303 499
304 331
304 380
304 382
304 388
304 389
304 404
304 445
304 451
304 463
304 468
304 471
304 487
304 499
305 320
305 358
305 360
305 369
305 372
305 386
305 403
305 410
305 438
305 447
305 453
306 329
306 370
306 376
306 389
306 390
306 411
306 426
306 433
306 448
306 458
306 491
306 496
307 308
307 313
307 333
307 340
307 354
307 367
307 390
307 410
307 427
307 436
307 447
307 458
307 478
308 314
308 340
308 345
308 361
308 369
308 371
308 373
308 377
308 439
308 472
308 486
308 487
308 496
309 336
309 355
309 386
309 394
309 402
309 448
309 459
309 465
309 490
310 311
310 327
310 361
310 373
310 383
310 391
310 405
310 409
310 410
310 437
310 443
310 444
310 497
311 312
311 319
311 353
311 361
311 394
311 414
311 443
311 454
311 467
311 485
312 313
312 333
312 342
312 365
312 389
312 397
312 401
312 404
312 417
312 476
312 484
313 316
313 326
313 327
313 339
313 340
313 341
313 350
313 364
313 424
313 436
313 446
313 468
313 477
313 498
314 317
314 332
314 367
314 383
314 413
314 415
314 431
314 453
314 473
314 480
314 490
314 493
314 497
315 328
315 356
315 392
315 396
315 420
315 433
315 437
315 446
315 452
315 456
315 495
315 497
316 341
316 342
316 372
316 374
316 375
316 406
316 421
316 425
316 441
316 461
316 484
316 488
316 490
317 320
317 327
317 351
317 370
317 386
317 400
317 426
317 451
317 460
317 461
317 479
317 487
317 496
318 344
318 371
318 388
318 395
318 402
318 416
318 450
318 462
318 479
318 483
319 348
319 349
319 381
319 405
319 416
319 429
319 433
319 472
320 357
320 360
320 361
320 366
320 424
320 438
320 454
320 472
320 480
320 481
321 338
321 340
321 343
321 351
321 372
321 378
321 383
321 399
321 422
321 448
321 455
321 468
321 475
321 488
321 492
322 347
322 360
322 373
322 391
322 397
322 415
322 422
322 450
322 477
322 479
323 353
323 364
323 393
323 410
323 416
323 429
323 442
323 444
323 465
323 498
324 329
324 350
324 365
324 366
324 391
324 395
324 409
324 415
324 421
324 427
324 435
324 442
324 448
324 454
324 467
324 478
324 490
325 349
325 354
325 366
325 367
325 397
325 399
325 402
325 407
325 413
325 439
325 449
325 454
325 456
325 469
325 474
325 477
325 482
325 487
326 337
326 369
326 374
326 429
326 450
326 460
326 466
327 338
327 345
327 367
327 371
327 390
327 393
327 400
327 404
327 462
327 464
328 332
328 343
328 345
328 347
328 355
328 364
328 366
328 406
328 408
328 409
328 418
328 421
328 429
328 435
328 436
328 442
328 462
328 466
328 472
328 480
328 481
328 492
329 363
329 391
329 397
329 416
329 423
329 434
329 440
329 446
329 452
329 476
329 479
329 497
330 334
330 350
330 368
330 381
330 416
330 421
330 439
330 444
330 462
330 482
330 488
330 492
330 493
331 332
331 383
331 387
331 388
331 408
331 416
331 437
331 471
331 482
332 348
332 360
332 362
332 380
332 397
332 412
332 417
332 421
332 427
332 441
332 461
332 463
332 464
332 480
332 482
332 484
332 494
332 497
332 499
333 340
333 357
333 387
333 390
333 392
333 400
333 447
333 459
333 470
333 488
333 490
334 354
334 355
334 356
334 399
334 403
334 411
334 434
334 449
334 467
334 470
334 483
334 486
334 494
335 348
335 351
335 360
335 367
335 380
335 383
335 407
335 414
335 433
335 450
335 453
335 477
335 483
335 487
335 491
336 345
336 385
336 412
336 416
336 427
336 431
336 450
336 458
336 460
336 472
336 488
337 372
337 378
337 386
337 388
337 429
337 433
337 436
337 442
337 457
337 458
337 461
337 472
337 473
337 475
337 483
337 490
337 499
338 352
338 353
338 355
338 356
338 389
338 399
338 438
338 470
338 497
339 342
339 344
339 360
339 361
339 373
339 407
339 419
339 421
339 425
339 426
339 469
340 350
340 370
340 377
340 388
340 390
340 395
340 403
340 409
340 417
340 439
340 443
340 446
340 456
340 474
340 499
341 365
341 373
341 375
341 379
341 380
341 381
341 388
341 403
341 414
341 420
341 429
341 453
341 454
341 490
342 350
342 357
342 358
342 370
342 376
342 383
342 410
342 422
342 460
342 477
343 356
343 373
343 375
343 417
343 436
343 437
343 440
343 455
343 462
343 465
344 362
344 438
344 446
344 458
344 477
344 490
344 499
345 352
345 356
345 359
345 379
345 394
345 397
345 407
345 409
345 410
345 414
345 425
345 426
345 435
345 436
345 457
345 473
345 489
345 496
345 499
346 352
346 393
346 400
346 410
346 418
346 447
346 448
346 470
346 474
346 476
346 481
346 486
347 366
347 367
347 380
347 382
347 384
347 404
347 421
347 429
347 437
347 450
347 458
347 467
347 485
347 489
348 377
348 380
348 383
348 391
348 410
348 420
348 443
348 454
348 466
348 472
348 486
349 354
349 370
349 373
349 382
349 385
349 413
349 423
349 458
349 460
349 469
349 476
349 479
350 353
350 359
350 363
350 380
350 381
350 384
350 389
350 438
350 458
350 459
350 493
350 496
350 498
351 364
351 383
351 389
351 395
351 418
351 454
351 466
351 492
352 357
352 365
352 375
352 408
352 446
352 466
352 484
353 377
353 390
353 412
353 427
353 458
353 462
353 475
354 360
354 374
354 444
354 470
354 473
354 493
355 358
355 362
355 377
355 384
355 388
355 391
355 400
355 433
355 436
355 449
355 457
355 458
355 462
356 368
356 382
356 393
356 404
356 408
356 428
356 453
356 468
356 482
356 483
356 491
357 365
357 384
357 385
357 391
357 406
357 418
357 421
357 447
357 452
357 485
357 492
357 495
358 381
358 409
358 412
358 421
358 446
358 482
358 494
358 495
359 364
359 379
359 380
359 387
359 394
359 398
359 409
359 422
359 430
359 456
359 471
359 485
359 488
359 494
359 499
360 378
360 384
360 386
360 407
360 422
360 425
360 447
360 458
360 495
361 363
361 374
361 377
361 379
361 392
361 401
361 411
361 412
361 455
361 477
361 485
361 489
361 495
362 483
362 490
363 378
363 384
363 393
363 417
363 429
363 439
363 449
363 472
363 486
364 376
364 413
364 456
364 475
364 477
365 366
365 378
365 398
365 432
365 457
365 470
365 478
366 369
366 392
366 401
366 449
366 471
366 476
366 480
367 393
367 395
367 403
367 409
367 422
367 424
367 430
367 444
367 469
367 476
367 481
367 483
368 397
368 416
368 420
368 428
368 435
368 454
368 465
368 469
368 496
369 373
369 409
369 417
369 420
369 496
369 497
369 498
370 372
370 384
370 412
370 416
370 428
370 436
370 437
370 458
370 478
370 484
370 489
371 377
371 378
371 398
371 402
371 420
371 423
371 454
371 466
371 467
371 488
371 492
372 377
372 385
372 393
372 400
372 421
372 425
372 444
372 464
372 477
372 479
373 382
373 393
373 402
373 405
373 408
373 429
373 436
373 492
373 493
374 378
374 380
374 389
374 442
374 449
374 464
374 498
374 499
375 378
375 394
375 401
375 405
375 408
375 420
375 424
375 425
375 436
375 474
375 483
375 486
375 488
376 385
376 407
376 422
376 429
376 438
376 441
376 468
376 484
377 381
377 383
377 384
377 388
377 401
377 412
377 423
377 428
377 495
377 499
378 381
378 404
378 427
378 428
378 445
378 449
378 463
378 465
378 469
378 470
378 482
378 489
378 492
378 495
379 389
379 417
379 435
379 456
379 480
379 487
379 495
380 392
380 393
380 403
380 416
380 419
380 443
380 449
380 467
380 468
380 469
380 475
380 499
381 396
381 415
381 424
381 453
381 472
382 386
382 388
382 390
382 392
382 395
382 409
382 415
382 423
382 438
382 452
382 460
382 489
383 403
383 417
383 422
383 424
383 433
383 466
383 469
383 485
383 487
384 386
384 399
384 405
384 407
384 413
384 419
384 440
384 464
384 465
384 481
384 485
384 494
384 498
385 398
385 411
385 426
385 429
385 430
385 448
385 453
385 495
386 407
386 410
386 467
386 490
386 491
387 388
387 394
387 395
387 397
387 399
387 443
387 484
387 486
387 499
388 392
388 411
388 439
388 442
388 468
388 484
389 391
389 397
389 400
389 409
389 423
389 452
389 455
389 456
389 463
389 489
390 401
390 418
390 435
390 453
390 469
390 477
390 482
390 483
391 457
391 499
392 405
392 427
392 450
392 479
392 495
393 432
393 439
393 443
393 473
393 476
393 485
393 497
394 405
394 407
394 415
394 417
394 428
394 446
394 457
395 397
395 408
395 415
395 431
395 454
395 467
395 469
395 472
395 480
396 424
396 448
396 450
396 474
396 479
396 499
397 418
397 445
397 452
397 463
397 475
397 477
397 478
397 498
398 409
398 453
398 485
398 493
399 410
399 433
399 440
399 466
399 473
399 489
399 498
400 407
400 409
400 419
400 420
400 421
400 438
400 454
400 460
400 461
400 493
401 407
401 408
401 440
401 447
401 451
401 465
401 474
401 487
402 418
402 445
402 459
402 464
402 495
403 411
403 414
403 425
403 464
403 490
404 417
404 421
404 444
404 445
404 469
404 492
404 497
405 408
405 425
405 431
405 450
405 479
405 498
406 425
406 443
406 494
407 421
407 443
407 447
407 461
408 409
408 411
408 437
408 452
408 463
408 464
408 484
408 499
409 422
409 425
409 431
409 435
409 455
409 459
409 474
409 485
410 413
410 416
410 420
410 423
410 443
410 481
411 426
411 456
411 492
411 499
412 416
412 418
412 431
412 454
412 456
412 470
412 473
412 488
412 490
412 492
413 418
413 423
413 424
413 448
413 454
413 465
413 476
413 481
413 483
414 420
414 426
414 440
414 449
414 456
414 472
414 478
414 481
414 489
414 495
415 426
415 431
415 438
415 442
415 459
415 460
415 462
415 470
415 483
416 426
416 444
416 450
416 452
416 453
416 464
416 469
416 485
416 494
416 498
417 419
417 422
417 436
417 441
417 445
417 459
418 423
418 437
418 474
418 480
419 426
419 427
419 429
419 433
419 459
419 460
419 475
419 489
420 445
420 449
420 468
420 475
420 479
420 485
421 425
421 430
421 447
421 454
421 469
421 475
422 437
422 452
422 455
422 458
422 463
422 465
422 498
423 453
423 480
423 487
423 488
423 489
423 491
424 439
424 445
424 447
424 491
425 427
425 445
425 450
425 459
425 483
425 489
425 493
426 427
426 439
426 460
426 461
426 470
426 474
426 479
426 494
427 437
427 438
427 439
427 441
427 444
427 475
427 493
428 439
428 459
428 478
429 456
429 459
430 434
430 441
430 451
430 461
430 483
430 484
431 460
431 475
432 437
432 446
432 449
432 454
432 466
432 468
432 472
432 483
432 487
433 458
433 472
433 473
433 489
433 493
434 451
434 453
434 472
434 479
434 480
435 438
435 447
435 463
435 481
435 483
435 494
436 472
436 497
438 460
438 479
438 490
439 449
439 455
439 475
439 477
439 481
440 466
440 474
441 449
441 450
441 459
441 494
442 445
442 453
442 470
442 495
443 454
443 456
443 464
443 471
443 473
443 481
444 460
444 491
444 498
445 454
445 479
445 482
445 490
445 493
446 450
446 473
446 475
446 485
447 455
447 498
448 464
448 472
449 467
449 482
449 484
450 464
450 469
451 478
452 455
453 455
453 468
453 473
454 464
454 477
454 478
454 494
454 496
455 459
455 463
455 471
455 477
455 498
456 477
456 496
457 474
458 474
458 482
458 484
458 486
458 489
459 461
459 467
459 476
459 477
459 484
460 465
460 470
460 494
461 466
461 472
461 481
461 487
461 489
461 493
461 496
461 497
462 464
462 470
462 472
462 476
463 474
464 468
464 469
465 478
465 485
466 469
466 481
467 482
467 486
467 487
468 489
469 489
469 490
469 493
470 472
470 478
470 497
471 475
471 477
472 497
473 485
474 484
475 477
475 481
476 486
476 499
478 493
478 495
479 484
479 488
481 494
482 498
484 486
484 498
485 489
486 491
490 498
491 497
492 497
