0 17
0 46
0 53
0 90
0 257
0 308
0 323
0 339
0 402
0 409
0 534
0 589
0 627
0 629
0 669
1 69
1 75
1 82
1 98
1 118
1 130
1 255
1 322
1 410
1 423
1 493
1 513
1 528
1 568
1 648
1 662
1 674
1 700
2 7
2 70
2 84
2 289
2 310
2 390
2 425
2 511
2 588
2 614
2 727
2 734
3 51
3 65
3 122
3 201
3 217
3 258
3 334
3 490
3 540
3 576
3 584
3 648
3 666
3 709
3 718
4 64
4 70
4 129
4 147
4 165
4 181
4 207
4 248
4 519
4 553
4 555
4 566
4 598
4 612
4 701
4 706
4 730
5 9
5 40
5 87
5 109
5 188
5 205
5 219
5 228
5 284
5 343
5 408
5 413
5 415
5 444
5 449
5 451
5 456
5 501
5 516
5 564
5 663
5 683
5 686
5 694
5 717
6 14
6 124
6 135
6 191
6 198
6 220
6 316
6 387
6 413
6 427
6 479
6 489
6 664
6 673
6 700
6 724
6 726
7 23
7 140
7 147
7 172
7 211
7 261
7 270
7 418
7 420
7 439
7 501
7 520
7 526
7 567
7 589
7 593
7 599
7 606
7 611
7 671
7 695
7 711
7 715
7 731
7 736
8 41
8 51
8 76
8 207
8 242
8 259
8 346
8 364
8 429
8 464
8 480
8 485
8 488
8 491
8 574
8 590
8 628
8 659
8 661
9 89
9 166
9 167
9 203
9 304
9 411
9 445
9 504
9 552
9 575
9 599
9 611
9 621
9 637
9 668
9 735
10 35
10 57
10 103
10 132
10 133
10 206
10 257
10 329
10 366
10 415
10 481
10 529
10 600
10 691
10 718
11 78
11 113
11 158
11 162
11 165
11 167
11 197
11 200
11 221
11 248
11 263
11 275
11 379
11 382
11 383
11 396
11 406
11 411
11 434
11 500
11 505
11 511
11 649
12 46
12 81
12 124
12 144
12 220
12 243
12 311
12 330
12 421
12 477
12 496
12 507
12 508
12 566
12 608
12 663
12 672
12 698
12 718
13 73
13 88
13 151
13 161
13 172
13 196
13 206
13 226
13 237
13 241
13 273
13 288
13 319
13 382
13 495
13 665
13 699
14 109
14 118
14 125
14 136
14 177
14 179
14 207
14 208
14 217
14 278
14 288
14 336
14 381
14 394
14 414
14 434
14 444
14 481
14 521
14 536
14 564
14 614
14 655
14 730
15 55
15 94
15 135
15 147
15 179
15 237
15 273
15 647
15 665
15 668
15 742
16 81
16 156
16 213
16 216
16 276
16 282
16 348
16 397
16 464
16 516
16 528
16 607
16 629
17 26
17 53
17 139
17 177
17 342
17 502
17 541
17 556
17 584
17 744
18 44
18 79
18 100
18 245
18 308
18 401
18 450
18 472
18 657
18 723
19 32
19 162
19 173
19 210
19 317
19 334
19 436
19 448
19 451
19 470
19 498
19 638
19 708
19 732
19 746
20 32
20 108
20 124
20 146
20 180
20 201
20 202
20 211
20 214
20 234
20 356
20 385
20 404
20 423
20 444
20 509
20 517
20 525
20 548
20 576
20 688
20 742
20 748
21 31
21 85
21 129
21 172
21 174
21 236
21 278
21 280
21 340
21 363
21 376
21 401
21 431
21 433
21 507
21 511
21 561
21 583
21 622
21 636
22 49
22 52
22 55
22 79
22 264
22 287
22 312
22 319
22 341
22 352
22 354
22 358
22 360
22 435
22 495
22 500
22 515
22 522
22 545
22 556
22 592
22 608
22 652
22 677
22 690
23 26
23 43
23 95
23 120
23 208
23 332
23 359
23 398
23 444
23 458
23 493
23 503
23 507
23 548
23 658
23 730
24 28
24 70
24 77
24 87
24 89
24 128
24 136
24 140
24 157
24 249
24 251
24 319
24 543
24 545
24 677
24 681
24 685
25 167
25 267
25 268
25 277
25 368
25 400
25 402
25 429
25 537
25 551
25 665
25 720
26 94
26 111
26 115
26 131
26 152
26 175
26 191
26 209
26 434
26 466
26 535
26 537
27 75
27 118
27 159
27 277
27 340
27 349
27 371
27 405
27 472
27 479
27 556
27 558
27 639
27 737
27 748
28 43
28 131
28 171
28 189
28 224
28 237
28 410
28 462
28 550
28 579
28 603
28 613
28 618
28 649
28 655
28 727
28 747
29 49
29 65
29 196
29 211
29 295
29 341
29 397
29 398
29 429
29 444
29 470
29 549
29 666
29 675
29 694
29 696
29 704
30 92
30 116
30 147
30 165
30 203
30 253
30 332
30 382
30 433
30 434
30 445
30 466
30 543
30 548
30 588
30 647
30 651
31 40
31 46
31 67
31 70
31 100
31 171
31 178
31 182
31 209
31 225
31 250
31 265
31 270
31 312
31 314
31 315
31 353
31 354
31 371
31 377
31 541
31 545
31 577
31 581
31 590
31 610
31 621
31 700
31 747
32 62
32 71
32 143
32 150
32 157
32 216
32 247
32 251
32 261
32 266
32 285
32 314
32 315
32 390
32 396
32 410
32 417
32 490
32 498
32 521
32 539
32 545
32 548
32 554
32 562
32 607
32 612
32 623
32 698
32 701
32 727
32 728
33 58
33 63
33 158
33 184
33 266
33 287
33 316
33 422
33 453
33 487
33 495
33 514
33 521
33 593
33 627
33 667
33 712
34 48
34 59
34 88
34 99
34 106
34 149
34 172
34 220
34 390
34 513
34 532
34 566
34 602
34 660
35 56
35 151
35 176
35 281
35 305
35 363
35 432
35 448
35 497
35 524
35 533
35 541
35 605
35 646
35 648
35 667
35 671
35 676
35 700
35 749
36 112
36 487
36 493
36 626
36 686
36 703
37 73
37 95
37 102
37 107
37 148
37 178
37 187
37 230
37 273
37 370
37 392
37 414
37 427
37 487
37 532
37 533
37 539
37 560
37 648
37 659
38 123
38 156
38 226
38 274
38 288
38 317
38 343
38 344
38 362
38 382
38 466
38 529
38 531
38 540
38 569
38 646
38 726
39 81
39 112
39 113
39 212
39 215
39 228
39 233
39 236
39 243
39 248
39 429
39 529
39 559
39 675
40 85
40 126
40 182
40 245
40 266
40 403
40 464
40 540
40 598
40 607
40 694
40 701
40 726
41 52
41 65
41 69
41 76
41 193
41 314
41 326
41 346
41 403
41 411
41 446
41 457
41 459
41 485
41 580
41 591
41 603
41 616
41 659
41 662
41 710
42 101
42 366
42 492
42 495
42 525
42 576
42 593
42 612
42 668
42 704
42 732
43 99
43 148
43 164
43 194
43 195
43 211
43 212
43 214
43 297
43 305
43 324
43 382
43 422
43 426
43 441
43 462
43 506
43 549
43 570
43 650
43 721
43 739
44 75
44 88
44 137
44 165
44 183
44 224
44 256
44 321
44 346
44 352
44 387
44 410
44 422
44 425
44 503
44 507
44 518
44 522
44 560
44 581
44 593
44 641
44 673
45 81
45 84
45 99
45 147
45 164
45 215
45 233
45 240
45 261
45 376
45 488
45 518
45 572
45 589
45 615
45 685
45 688
45 691
45 703
45 704
45 731
45 733
46 54
46 90
46 158
46 174
46 229
46 266
46 345
46 410
46 450
46 541
46 684
46 713
47 49
47 53
47 78
47 137
47 152
47 181
47 213
47 289
47 299
47 312
47 359
47 362
47 364
47 376
47 391
47 442
47 463
47 567
47 617
47 745
48 103
48 153
48 158
48 197
48 239
48 252
48 340
48 357
48 421
48 446
48 489
48 505
48 598
48 614
48 627
48 643
48 648
49 108
49 165
49 208
49 233
49 242
49 311
49 334
49 336
49 441
49 464
49 530
49 586
49 596
49 648
49 658
49 743
50 53
50 106
50 155
50 159
50 203
50 248
50 314
50 385
50 422
50 515
50 519
50 532
50 552
50 629
50 634
50 644
51 67
51 101
51 142
51 144
51 148
51 270
51 273
51 315
51 326
51 430
51 518
51 560
51 617
51 634
51 636
51 659
51 733
51 739
52 67
52 144
52 174
52 203
52 254
52 348
52 417
52 422
52 464
52 548
52 564
52 593
52 647
52 658
52 675
53 108
53 116
53 119
53 156
53 297
53 365
53 401
53 456
53 475
53 526
53 558
53 633
53 696
53 709
54 64
54 108
54 127
54 134
54 150
54 286
54 291
54 457
54 483
54 491
54 572
54 624
54 663
54 706
55 65
55 118
55 150
55 214
55 241
55 294
55 313
55 335
55 355
55 360
55 416
55 434
55 437
55 452
55 458
55 478
55 700
55 719
55 726
55 728
56 113
56 209
56 275
56 363
56 438
56 440
56 445
56 449
56 469
56 496
56 593
56 607
56 664
56 671
56 676
56 717
57 64
57 179
57 184
57 252
57 272
57 291
57 293
57 295
57 339
57 387
57 395
57 486
57 496
57 553
57 623
57 635
57 638
57 665
57 676
57 682
57 694
58 126
58 215
58 327
58 419
58 628
59 77
59 125
59 151
59 156
59 216
59 226
59 292
59 372
59 418
59 484
59 537
59 565
59 618
59 630
59 687
59 748
60 75
60 79
60 158
60 307
60 391
60 393
60 475
60 554
60 616
60 631
60 678
60 692
60 710
60 720
60 725
60 734
60 738
61 86
61 212
61 221
61 348
61 367
61 393
61 414
61 426
61 485
61 542
61 545
61 557
61 587
61 608
61 668
62 95
62 128
62 132
62 138
62 147
62 161
62 222
62 230
62 231
62 393
62 398
62 457
62 519
62 528
62 555
62 561
62 649
62 659
62 726
62 747
63 125
63 143
63 152
63 245
63 251
63 258
63 304
63 397
63 465
63 494
63 506
63 524
63 552
63 560
63 607
63 660
64 94
64 119
64 159
64 185
64 190
64 192
64 308
64 321
64 335
64 387
64 415
64 502
64 530
64 541
64 543
64 565
64 684
64 714
64 743
65 81
65 124
65 214
65 287
65 297
65 337
65 387
65 423
65 443
65 572
65 630
65 664
65 699
65 725
66 136
66 179
66 231
66 260
66 291
66 307
66 545
66 611
66 684
66 715
67 74
67 123
67 159
67 172
67 207
67 220
67 331
67 339
67 349
67 421
67 429
67 447
67 576
67 590
67 615
67 657
67 667
67 675
67 681
67 714
68 94
68 140
68 153
68 186
68 206
68 229
68 375
68 401
68 427
68 498
68 509
68 600
68 606
68 627
68 714
68 726
68 739
69 84
69 116
69 133
69 176
69 226
69 237
69 302
69 405
69 457
69 477
69 478
69 511
69 545
69 572
69 588
69 639
69 651
69 682
69 708
70 103
70 245
70 271
70 409
70 426
70 458
70 518
70 546
70 585
70 644
70 713
70 717
70 745
71 96
71 306
71 310
71 320
71 354
71 408
71 441
71 469
71 521
71 540
71 560
71 655
71 742
72 170
72 184
72 191
72 225
72 264
72 267
72 338
72 412
72 543
72 545
72 608
72 618
72 625
72 659
72 697
72 701
72 727
72 732
72 748
73 87
73 144
73 152
73 199
73 201
73 258
73 259
73 262
73 316
73 344
73 366
73 388
73 398
73 463
73 518
73 651
73 697
74 82
74 236
74 239
74 276
74 280
74 283
74 332
74 354
74 368
74 412
74 460
74 474
74 494
74 511
74 590
74 738
75 103
75 145
75 157
75 179
75 180
75 201
75 218
75 346
75 410
75 447
75 476
75 514
75 684
75 697
75 703
76 97
76 174
76 175
76 197
76 234
76 250
76 306
76 342
76 355
76 368
76 373
76 390
76 444
76 461
76 496
76 506
76 615
76 620
76 641
76 652
76 702
77 132
77 134
77 138
77 193
77 210
77 244
77 342
77 359
77 395
77 453
77 546
77 599
77 667
77 715
78 102
78 121
78 131
78 167
78 247
78 302
78 330
78 341
78 345
78 348
78 355
78 431
78 453
78 456
78 480
78 583
78 613
78 622
78 662
78 669
78 701
78 706
79 125
79 160
79 163
79 302
79 333
79 348
79 349
79 409
79 461
79 495
79 559
79 591
79 625
79 648
79 656
79 702
79 734
80 105
80 111
80 214
80 225
80 241
80 303
80 321
80 340
80 347
80 355
80 357
80 401
80 417
80 434
80 466
80 469
80 487
80 539
80 623
80 635
80 640
81 87
81 100
81 162
81 190
81 276
81 278
81 299
81 344
81 403
81 432
81 476
81 501
81 509
81 560
81 645
81 652
81 696
81 741
82 219
82 229
82 239
82 326
82 342
82 366
82 376
82 382
82 419
82 426
82 431
82 473
82 481
82 494
82 513
82 596
83 215
83 244
83 270
83 346
83 389
83 400
83 415
83 438
83 509
83 537
83 577
83 611
83 623
83 625
83 669
83 695
83 709
84 110
84 197
84 208
84 260
84 338
84 343
84 374
84 393
84 481
84 666
84 670
84 672
84 688
84 694
84 720
85 184
85 251
85 274
85 285
85 300
85 376
85 555
85 570
85 623
85 624
85 654
85 694
86 153
86 163
86 172
86 246
86 272
86 286
86 318
86 324
86 335
86 480
86 570
86 620
87 91
87 117
87 134
87 153
87 200
87 249
87 313
87 331
87 337
87 355
87 411
87 445
87 487
87 524
87 550
87 556
87 558
87 562
87 596
87 625
87 635
87 678
87 713
87 731
88 158
88 159
88 162
88 195
88 348
88 354
88 456
88 467
88 574
88 580
88 749
89 134
89 185
89 194
89 213
89 254
89 306
89 343
89 392
89 411
89 428
89 466
89 480
89 508
89 526
89 565
89 658
89 661
89 686
89 713
90 154
90 165
90 186
90 301
90 312
90 360
90 383
90 451
90 476
90 502
90 532
90 582
90 610
90 630
90 669
90 687
90 716
91 144
91 159
91 168
91 190
91 200
91 211
91 241
91 283
91 303
91 305
91 314
91 336
91 343
91 348
91 441
91 445
91 449
91 473
91 488
91 552
91 553
91 564
91 599
91 614
91 638
91 661
91 682
91 685
91 687
91 701
91 705
92 136
92 314
92 361
92 429
92 470
92 521
92 539
92 614
92 652
92 693
92 708
93 103
93 231
93 251
93 280
93 298
93 347
93 388
93 405
93 417
93 433
93 471
93 513
93 592
93 624
93 645
93 648
93 652
93 675
93 687
94 208
94 213
94 248
94 254
94 259
94 402
94 467
94 492
94 512
94 595
94 685
94 710
95 103
95 156
95 209
95 244
95 283
95 320
95 484
95 491
95 525
95 590
95 591
95 719
95 732
96 138
96 170
96 180
96 216
96 241
96 251
96 307
96 329
96 432
96 494
96 498
96 533
96 555
96 569
96 595
96 647
96 685
96 695
96 742
97 124
97 177
97 218
97 267
97 288
97 295
97 317
97 328
97 331
97 374
97 419
97 475
97 490
97 538
97 547
97 558
97 577
97 603
97 729
98 208
98 218
98 364
98 437
98 552
98 580
98 602
98 607
98 648
98 702
99 145
99 276
99 291
99 303
99 309
99 327
99 435
99 505
99 573
99 595
99 597
99 622
99 690
99 725
99 729
99 746
100 235
100 249
100 280
100 320
100 321
100 357
100 427
100 494
100 514
100 554
100 555
100 582
100 622
101 136
101 144
101 227
101 325
101 394
101 396
101 498
101 570
101 643
101 693
101 697
101 713
102 135
102 136
102 181
102 290
102 333
102 433
102 436
102 470
102 556
102 565
102 610
102 639
103 109
103 190
103 210
103 214
103 342
103 360
103 367
103 368
103 373
103 392
103 428
103 488
103 500
103 501
103 568
103 633
103 634
103 675
103 681
104 206
104 217
104 238
104 262
104 285
104 305
104 310
104 321
104 344
104 373
104 377
104 510
104 527
104 551
104 574
104 665
104 709
105 180
105 269
105 355
105 378
105 476
105 510
105 516
105 522
105 524
105 525
105 581
105 682
105 738
106 117
106 131
106 164
106 174
106 208
106 212
106 322
106 383
106 384
106 397
106 465
106 481
106 548
106 555
106 568
106 603
106 671
106 676
106 677
106 690
106 715
106 727
107 134
107 139
107 183
107 319
107 336
107 430
107 441
107 480
107 507
107 590
107 684
108 175
108 242
108 301
108 323
108 403
108 414
108 457
108 554
108 562
108 678
108 686
108 738
108 745
108 749
109 135
109 224
109 243
109 263
109 276
109 398
109 521
109 564
109 567
109 621
109 625
109 639
109 654
109 655
109 664
109 672
109 715
109 726
109 741
109 749
110 126
110 133
110 238
110 312
110 399
110 431
110 530
110 531
110 541
110 564
110 645
110 687
110 699
110 724
111 170
111 174
111 347
111 382
111 388
111 472
111 634
111 636
111 740
111 748
112 121
112 125
112 168
112 284
112 328
112 330
112 333
112 497
112 579
112 582
112 612
112 746
113 167
113 287
113 308
113 346
113 384
113 413
113 415
113 470
113 550
113 578
113 652
113 683
113 709
113 743
114 179
114 220
114 256
114 318
114 348
114 362
114 381
114 425
114 435
114 444
114 521
114 535
114 556
114 560
114 634
114 695
114 717
114 736
114 745
115 119
115 130
115 136
115 179
115 205
115 334
115 392
115 447
115 568
115 606
115 617
115 644
115 718
115 728
116 147
116 215
116 246
116 270
116 279
116 299
116 328
116 351
116 400
116 458
116 469
116 486
116 491
116 544
116 559
116 602
116 706
116 734
117 261
117 270
117 273
117 314
117 340
117 369
117 381
117 447
117 493
117 605
117 644
117 712
118 120
118 164
118 176
118 218
118 236
118 247
118 273
118 298
118 324
118 355
118 391
118 410
118 478
118 509
118 617
118 653
118 717
118 728
118 739
119 182
119 230
119 259
119 290
119 318
119 404
119 510
119 536
119 555
119 610
119 690
119 699
120 123
120 137
120 141
120 156
120 169
120 253
120 266
120 278
120 315
120 335
120 385
120 387
120 450
120 481
120 518
120 524
120 540
120 552
120 594
120 649
120 653
120 693
120 704
120 709
121 189
121 260
121 263
121 278
121 283
121 287
121 304
121 308
121 315
121 351
121 471
121 493
121 568
121 570
121 581
121 599
121 611
121 630
121 669
121 674
121 678
121 695
121 746
122 165
122 188
122 193
122 275
122 354
122 385
122 448
122 487
122 626
123 161
123 169
123 171
123 222
123 226
123 227
123 247
123 250
123 280
123 339
123 352
123 398
123 486
123 499
123 554
123 597
123 664
123 671
123 677
123 683
124 126
124 158
124 248
124 255
124 296
124 308
124 500
124 506
124 533
124 633
125 136
125 161
125 298
125 304
125 389
125 393
125 600
125 636
125 648
125 655
125 720
126 179
126 225
126 274
126 276
126 354
126 414
126 487
126 531
126 545
126 553
126 636
126 658
126 691
126 749
127 166
127 227
127 273
127 307
127 317
127 352
127 462
127 471
127 525
127 590
127 598
127 648
127 697
127 738
128 181
128 194
128 279
128 286
128 295
128 313
128 392
128 456
128 511
128 638
128 697
128 737
128 744
128 749
129 160
129 172
129 231
129 263
129 321
129 356
129 391
129 395
129 413
129 565
129 630
129 699
130 216
130 259
130 335
130 361
130 399
130 498
130 500
130 506
130 540
130 598
130 633
130 668
130 698
130 728
130 740
131 177
131 201
131 256
131 320
131 356
131 373
131 438
131 446
131 530
131 580
131 581
131 648
131 719
132 185
132 270
132 273
132 297
132 352
132 528
132 530
132 594
132 597
132 601
132 625
133 231
133 253
133 290
133 324
133 406
133 462
133 492
133 521
133 547
133 582
133 649
133 667
133 704
133 727
134 151
134 163
134 190
134 196
134 223
134 224
134 228
134 248
134 314
134 385
134 448
134 457
134 558
134 595
134 599
134 600
134 632
134 693
134 741
134 744
135 213
135 229
135 255
135 305
135 322
135 347
135 363
135 382
135 501
135 536
135 593
135 604
135 629
136 166
136 199
136 258
136 302
136 311
136 341
136 384
136 400
136 420
136 472
136 542
136 565
136 577
136 582
136 651
136 697
137 233
137 251
137 334
137 367
137 503
137 619
137 653
137 716
137 723
138 218
138 234
138 306
138 430
138 543
138 562
138 583
138 591
138 602
138 604
138 650
138 684
138 693
139 204
139 236
139 284
139 290
139 377
139 442
139 521
139 556
139 605
139 619
139 693
139 727
139 734
140 170
140 190
140 216
140 274
140 300
140 310
140 438
140 477
140 497
140 539
140 585
140 615
140 642
140 716
141 143
141 158
141 176
141 215
141 260
141 291
141 295
141 303
141 314
141 316
141 320
141 367
141 377
141 417
141 490
141 493
141 616
141 617
141 660
142 244
142 291
142 314
142 387
142 400
142 481
142 586
142 633
142 634
142 660
142 673
142 696
142 714
143 316
143 321
143 340
143 355
143 404
143 409
143 420
143 443
143 470
143 475
143 482
143 517
143 538
143 552
143 565
143 591
143 598
143 611
143 643
143 730
144 158
144 271
144 311
144 320
144 329
144 336
144 375
144 418
144 444
144 541
144 570
144 584
144 684
144 717
144 749
145 160
145 193
145 239
145 250
145 363
145 389
145 462
145 464
145 548
145 597
145 624
145 687
145 722
145 726
146 160
146 163
146 210
146 255
146 261
146 303
146 357
146 362
146 441
146 459
146 512
146 688
147 157
147 169
147 214
147 233
147 244
147 245
147 311
147 322
147 381
147 394
147 435
147 455
147 504
147 529
147 590
147 669
147 723
147 739
148 235
148 257
148 261
148 282
148 315
148 318
148 386
148 396
148 398
148 419
148 467
148 484
148 501
148 570
148 608
148 622
148 657
148 704
148 737
149 263
149 273
149 374
149 427
149 456
149 457
149 533
149 709
149 734
150 171
150 177
150 219
150 228
150 238
150 289
150 333
150 341
150 345
150 367
150 370
150 535
150 601
150 616
150 675
151 187
151 259
151 283
151 407
151 451
151 480
151 529
151 570
151 608
151 633
151 701
151 708
151 717
152 156
152 182
152 242
152 247
152 283
152 324
152 354
152 362
152 398
152 427
152 571
152 575
152 623
152 669
152 686
152 728
152 731
153 263
153 341
153 342
153 403
153 528
153 566
153 675
153 677
153 686
153 691
153 714
153 723
153 725
153 732
154 186
154 260
154 272
154 341
154 348
154 349
154 354
154 372
154 403
154 415
154 430
154 516
154 581
154 583
154 596
154 709
154 728
155 321
155 327
155 357
155 365
155 414
155 464
155 465
155 541
155 610
155 648
155 697
155 711
155 725
156 193
156 228
156 238
156 301
156 321
156 330
156 421
156 513
156 525
156 585
156 610
156 636
157 160
157 188
157 192
157 267
157 295
157 334
157 373
157 396
157 399
157 478
157 479
157 480
157 483
157 545
157 553
157 662
157 672
157 679
158 159
158 211
158 232
158 281
158 313
158 357
158 382
158 407
158 423
158 426
158 476
158 488
158 503
158 614
158 683
158 736
158 741
159 173
159 353
159 362
159 395
159 441
159 464
159 493
159 496
159 528
159 536
159 540
159 560
159 577
159 693
159 705
159 740
160 162
160 200
160 217
160 273
160 295
160 317
160 320
160 324
160 336
160 355
160 357
160 396
160 472
160 568
160 578
160 631
160 695
160 706
161 207
161 317
161 388
161 407
161 408
161 419
161 472
161 521
161 530
161 642
161 688
161 706
162 184
162 195
162 230
162 243
162 309
162 347
162 387
162 422
162 554
162 596
162 617
162 639
162 671
162 687
162 703
163 257
163 312
163 380
163 388
163 414
163 427
163 454
163 469
163 516
163 560
163 579
163 645
163 737
164 303
164 308
164 362
164 375
164 391
164 445
164 485
164 529
164 675
164 690
164 711
164 748
165 169
165 208
165 219
165 226
165 259
165 296
165 320
165 327
165 333
165 336
165 369
165 397
165 448
165 499
165 523
165 564
165 603
165 686
166 183
166 196
166 215
166 224
166 276
166 282
166 321
166 373
166 374
166 395
166 425
166 457
166 469
166 485
166 494
166 547
166 695
166 696
167 171
167 220
167 255
167 283
167 319
167 321
167 323
167 382
167 406
167 479
167 516
167 524
167 657
167 745
168 186
168 202
168 215
168 230
168 267
168 272
168 286
168 318
168 322
168 340
168 346
168 350
168 374
168 384
168 387
168 468
168 529
168 662
168 680
168 688
168 709
168 711
169 221
169 232
169 271
169 363
169 392
169 541
169 583
169 646
169 654
169 684
169 700
169 707
169 747
170 244
170 248
170 250
170 353
170 385
170 390
170 591
170 725
171 176
171 191
171 231
171 297
171 311
171 330
171 353
171 372
171 399
171 407
171 496
171 519
171 520
171 617
171 692
171 726
172 186
172 198
172 205
172 266
172 352
172 370
172 477
172 588
172 591
172 649
172 672
172 708
173 186
173 224
173 251
173 254
173 314
173 340
173 361
173 406
173 438
173 461
173 466
173 468
173 563
173 573
173 606
173 611
173 682
174 183
174 192
174 195
174 284
174 427
174 460
174 569
174 643
174 669
175 193
175 339
175 400
175 459
175 460
175 495
175 523
175 531
175 585
175 650
176 186
176 221
176 235
176 350
176 417
176 481
176 485
176 526
176 573
176 671
177 299
177 350
177 394
177 399
177 440
177 469
177 485
177 508
177 580
177 656
177 672
177 683
177 729
177 749
178 213
178 242
178 250
178 264
178 339
178 360
178 397
178 548
178 558
178 590
178 707
178 742
178 747
179 184
179 228
179 240
179 294
179 358
179 464
179 497
179 551
179 608
179 610
179 621
179 696
179 735
179 741
180 213
180 221
180 240
180 352
180 390
180 404
180 433
180 504
180 509
180 551
180 553
180 664
181 207
181 298
181 305
181 311
181 387
181 394
181 410
181 430
181 448
181 482
181 497
181 540
181 558
181 576
181 591
181 617
182 191
182 197
182 231
182 240
182 264
182 272
182 342
182 389
182 398
182 519
182 537
182 543
182 626
182 658
182 681
183 265
183 277
183 286
183 295
183 302
183 338
183 442
183 492
183 498
183 522
183 561
183 616
183 664
183 673
184 199
184 202
184 208
184 262
184 292
184 293
184 339
184 545
184 549
184 574
184 681
184 705
185 212
185 232
185 254
185 263
185 266
185 274
185 298
185 304
185 346
185 374
185 422
185 430
185 446
185 453
185 490
185 505
185 597
185 618
185 643
185 656
185 684
185 715
186 252
186 286
186 359
186 403
186 411
186 464
186 501
186 543
186 547
186 588
186 651
186 685
186 727
186 739
186 746
187 241
187 261
187 265
187 279
187 285
187 292
187 327
187 328
187 402
187 445
187 455
187 496
187 515
187 553
187 569
187 630
187 656
187 679
187 685
188 228
188 268
188 312
188 337
188 470
188 524
188 527
188 613
188 631
188 649
188 702
188 741
189 202
189 247
189 283
189 318
189 456
189 504
189 534
189 552
189 621
189 632
189 634
189 656
189 659
189 661
189 691
189 710
189 743
190 284
190 317
190 346
190 358
190 385
190 404
190 410
190 454
190 517
190 568
190 588
190 637
190 655
190 682
191 211
191 260
191 273
191 315
191 356
191 366
191 414
191 428
191 432
191 524
191 542
191 645
191 729
192 214
192 270
192 314
192 358
192 376
192 471
192 477
192 519
192 574
192 611
192 634
192 661
192 666
193 230
193 278
193 283
193 308
193 341
193 363
193 364
193 385
193 387
193 405
193 544
193 573
193 583
193 592
193 606
193 664
194 206
194 286
194 295
194 298
194 530
194 560
194 604
194 607
194 674
194 708
194 717
195 234
195 253
195 261
195 320
195 339
195 379
195 411
195 494
195 636
196 500
196 544
196 618
196 674
196 706
196 731
196 734
196 749
197 200
197 303
197 325
197 373
197 469
197 499
197 508
197 509
197 523
197 609
197 667
197 673
197 687
197 690
198 251
198 270
198 391
198 488
198 500
198 578
198 597
198 640
198 674
198 723
198 731
198 737
199 204
199 210
199 215
199 250
199 274
199 276
199 342
199 355
199 383
199 443
199 487
199 582
199 596
199 620
199 621
199 634
199 636
199 684
199 732
200 232
200 233
200 237
200 276
200 314
200 343
200 395
200 433
200 499
200 541
200 578
200 610
201 308
201 368
201 372
201 466
201 480
201 485
201 500
201 582
201 647
201 676
201 678
201 714
202 205
202 259
202 295
202 359
202 368
202 403
202 438
202 525
202 553
202 576
202 582
202 611
202 621
202 631
203 266
203 280
203 414
203 420
203 441
203 445
203 620
203 656
203 680
203 706
203 710
204 206
204 211
204 214
204 349
204 406
204 414
204 417
204 570
204 620
204 678
204 683
205 233
205 240
205 268
205 298
205 420
205 438
205 520
205 533
205 661
205 672
205 741
206 349
206 396
206 464
206 505
206 552
206 625
206 635
206 677
206 682
206 709
206 716
207 263
207 273
207 303
207 325
207 333
207 402
207 490
207 491
207 644
208 223
208 228
208 382
208 424
208 477
208 478
208 488
208 515
208 531
208 534
208 673
208 727
209 313
209 386
209 403
209 422
209 439
209 456
209 615
209 684
210 229
210 255
210 285
210 331
210 358
210 450
210 509
210 512
210 554
210 664
210 707
210 717
211 215
211 240
211 309
211 418
211 456
211 494
211 540
211 542
211 621
211 630
211 660
211 668
211 689
211 691
212 217
212 251
212 299
212 311
212 339
212 377
212 385
212 392
212 463
212 475
212 522
212 596
212 660
212 692
212 693
212 717
213 229
213 264
213 294
213 329
213 359
213 379
213 405
213 419
213 455
213 500
213 529
213 559
213 560
213 587
213 606
213 657
213 697
213 739
213 749
214 426
214 432
214 434
214 499
214 686
214 730
214 737
215 221
215 222
215 353
215 455
215 462
215 521
215 561
215 567
215 592
215 694
215 706
215 732
216 333
216 360
216 364
216 384
216 396
216 426
216 464
216 541
216 583
216 647
216 734
217 223
217 231
217 294
217 299
217 305
217 402
217 430
217 507
217 522
217 539
217 550
217 601
217 608
217 644
217 648
217 670
217 672
218 273
218 283
218 332
218 348
218 392
218 412
218 440
218 472
218 580
218 668
218 685
219 231
219 284
219 319
219 406
219 507
219 649
220 225
220 300
220 335
220 375
220 387
220 396
220 449
220 500
220 588
220 591
220 614
220 707
220 711
221 222
221 236
221 348
221 379
221 481
221 507
221 660
221 695
221 723
221 737
222 309
222 367
222 370
222 428
222 474
222 511
222 546
222 570
222 577
222 590
222 624
222 634
222 635
222 712
222 723
223 302
223 372
223 436
223 494
223 506
223 520
223 581
223 600
223 650
223 722
223 740
223 748
224 237
224 280
224 318
224 363
224 456
224 480
224 484
224 530
224 539
224 582
224 620
224 685
224 745
225 247
225 248
225 318
225 344
225 364
225 417
225 480
225 526
225 570
225 614
225 629
225 661
225 689
225 706
225 709
225 722
226 261
226 266
226 307
226 361
226 389
226 431
226 440
226 531
226 661
226 733
226 736
226 749
227 306
227 370
227 405
227 408
227 422
227 458
227 465
227 570
227 574
227 575
227 639
227 725
228 235
228 319
228 399
228 433
228 442
228 498
228 515
228 518
228 541
228 570
228 574
228 678
228 705
229 235
229 337
229 350
229 366
229 477
229 480
229 539
229 545
229 563
229 587
229 626
230 344
230 386
230 416
230 445
230 508
230 549
230 643
230 682
230 710
230 714
231 319
231 361
231 370
231 398
231 403
231 405
231 408
231 428
231 430
231 482
231 516
231 590
231 636
231 667
231 718
231 745
232 289
232 342
232 351
232 389
232 423
232 498
232 565
232 574
232 597
232 690
232 734
232 748
233 268
233 274
233 284
233 305
233 360
233 364
233 421
233 472
233 553
233 603
233 634
233 650
233 652
233 658
233 667
233 686
233 727
234 235
234 297
234 398
234 405
234 425
234 442
234 503
234 534
234 590
234 596
234 655
234 656
234 666
234 696
234 709
235 386
235 402
235 437
235 441
235 457
235 551
235 562
235 609
235 706
235 719
236 249
236 250
236 281
236 311
236 313
236 368
236 426
236 444
236 461
236 473
236 484
236 513
236 519
236 548
236 735
237 260
237 342
237 487
237 525
237 542
237 574
237 633
237 740
238 321
238 366
238 417
238 458
238 529
238 615
238 635
238 706
238 710
239 248
239 274
239 307
239 389
239 426
239 438
239 586
239 599
239 681
239 694
239 700
239 748
240 242
240 361
240 426
240 444
240 494
240 547
240 551
240 567
240 605
240 626
240 659
240 736
241 250
241 272
241 293
241 324
241 356
241 362
241 364
241 397
241 407
241 420
241 481
241 517
241 546
241 556
241 717
242 245
242 257
242 284
242 287
242 309
242 341
242 430
242 469
242 507
242 522
242 549
242 579
242 580
242 586
242 622
243 279
243 343
243 421
243 507
243 540
243 561
243 573
243 617
243 636
244 249
244 306
244 370
244 371
244 388
244 417
244 453
244 506
244 573
244 636
244 645
245 271
245 316
245 361
245 391
245 450
245 590
245 710
245 729
246 349
246 358
246 376
246 399
246 418
246 528
246 529
246 571
246 620
246 639
246 746
247 323
247 353
247 392
247 408
247 419
247 427
247 443
247 501
247 648
247 697
247 707
248 271
248 307
248 393
248 398
248 577
248 619
248 625
248 674
248 681
248 712
248 722
249 267
249 287
249 308
249 337
249 372
249 471
249 485
249 531
249 556
249 621
249 663
249 737
249 749
250 343
250 407
250 425
250 489
250 520
250 584
250 721
250 727
251 259
251 284
251 297
251 395
251 479
251 483
251 589
251 599
251 630
251 673
251 685
251 697
251 706
252 264
252 315
252 345
252 378
252 454
252 537
252 568
252 604
252 642
252 652
252 706
252 713
252 739
253 320
253 330
253 346
253 363
253 491
253 501
253 555
253 579
253 584
253 619
253 679
253 681
253 732
254 294
254 368
254 398
254 470
254 485
254 511
254 533
254 575
254 585
254 605
254 608
254 682
254 707
254 737
255 295
255 339
255 452
255 458
255 472
255 522
255 598
255 600
255 657
255 675
255 727
256 312
256 321
256 333
256 456
256 528
256 541
256 580
256 636
256 651
256 708
257 330
257 393
257 401
257 442
257 443
257 449
257 464
257 536
257 541
257 607
257 651
257 711
257 714
257 716
257 748
258 300
258 303
258 312
258 313
258 376
258 379
258 389
258 450
258 468
258 500
258 510
258 519
258 565
258 594
258 599
258 666
259 269
259 291
259 500
259 533
259 534
259 639
259 651
259 656
260 273
260 275
260 304
260 367
260 372
260 379
260 451
260 505
260 506
260 517
260 523
260 559
260 602
260 637
260 744
261 284
261 318
261 349
261 414
261 418
261 464
261 479
261 556
261 609
261 706
261 749
262 323
262 389
262 415
262 540
262 567
262 679
262 689
262 697
262 749
263 278
263 282
263 294
263 357
263 454
263 477
263 662
263 699
263 727
264 350
264 351
264 358
264 515
264 517
264 537
264 581
264 730
265 270
265 291
265 362
265 439
265 473
265 474
265 521
265 699
266 276
266 290
266 363
266 438
266 447
266 489
266 528
266 631
266 666
266 675
266 695
266 713
267 284
267 390
267 442
267 514
267 518
267 532
267 559
267 577
267 578
267 613
267 614
267 616
267 710
267 733
268 327
268 385
268 387
268 406
268 557
268 714
269 274
269 288
269 308
269 361
269 467
269 546
269 620
269 633
269 634
269 637
270 275
270 284
270 302
270 333
270 370
270 435
270 439
270 465
270 609
270 720
271 276
271 297
271 327
271 389
271 400
271 411
271 425
271 431
271 436
271 440
271 457
271 580
271 611
271 642
271 681
271 706
272 283
272 341
272 375
272 401
272 425
272 439
272 559
272 578
272 591
272 614
272 726
272 743
273 353
273 375
273 379
273 395
273 464
273 498
273 604
273 665
273 684
274 468
274 470
274 477
274 564
274 571
274 633
274 675
275 289
275 460
275 470
275 494
275 504
275 535
275 686
275 705
276 295
276 304
276 329
276 334
276 377
276 388
276 405
276 429
276 461
276 502
276 554
276 575
276 599
276 710
276 744
277 395
277 717
277 730
278 354
278 387
278 420
278 428
278 439
278 478
278 482
278 483
278 516
278 590
278 611
278 694
279 356
279 391
279 457
279 469
279 565
279 617
279 688
280 300
280 334
280 354
280 370
280 399
280 432
280 440
280 450
280 531
280 551
280 591
280 676
280 701
280 738
281 341
281 366
281 382
281 394
281 432
281 445
281 488
281 557
281 583
282 366
282 397
282 406
282 414
282 441
282 476
282 502
282 601
282 670
282 707
282 727
283 289
283 305
283 375
283 393
283 423
283 453
283 465
283 488
283 499
283 503
283 553
283 586
283 659
283 674
283 677
283 696
283 711
283 721
284 302
284 320
284 440
284 525
284 551
284 557
285 324
285 368
285 405
285 415
285 424
285 528
285 548
285 549
285 608
285 630
285 657
285 712
285 723
286 311
286 394
286 460
286 464
286 472
286 507
286 525
286 574
286 595
286 608
286 644
286 721
287 306
287 338
287 382
287 416
287 418
287 478
287 488
287 563
288 304
288 318
288 389
288 411
288 524
288 541
288 563
288 566
288 711
289 292
289 316
289 323
289 363
289 450
289 474
289 492
289 497
289 554
289 593
289 607
289 647
289 680
289 694
289 700
290 307
290 309
290 354
290 387
290 471
290 492
290 513
290 535
290 638
290 641
290 708
291 314
291 449
291 504
291 526
291 537
291 564
291 582
291 585
291 672
291 692
292 302
292 307
292 334
292 372
292 464
292 490
292 527
292 695
292 748
293 300
293 384
293 491
293 568
293 638
293 681
294 321
294 334
294 350
294 507
294 539
294 588
294 591
294 708
295 362
295 449
295 478
295 504
295 566
295 597
295 643
295 744
295 746
296 303
296 311
296 361
296 389
296 422
296 487
296 523
296 563
296 570
296 622
296 748
297 306
297 333
297 344
297 419
297 437
297 445
297 462
297 478
297 481
297 486
297 543
297 575
297 646
297 683
298 397
298 406
298 444
298 449
298 480
298 565
298 650
298 654
298 698
299 302
299 460
299 553
299 569
299 590
299 606
299 617
299 677
300 333
300 355
300 404
300 407
300 409
300 416
300 418
300 451
300 476
300 506
300 518
300 542
300 543
300 645
300 696
301 398
301 403
301 541
301 561
301 595
301 598
301 622
301 699
301 735
301 736
302 323
302 339
302 341
302 367
302 393
302 428
302 431
302 487
303 308
303 412
303 567
304 341
304 343
304 344
304 350
304 357
304 364
304 371
304 373
304 451
304 474
304 495
304 534
304 563
304 604
304 648
304 714
304 723
304 730
305 329
305 394
305 497
305 647
306 436
306 528
306 538
306 587
306 635
306 700
307 315
307 356
307 358
307 390
307 411
307 455
307 471
308 346
308 355
308 445
308 495
308 526
308 578
308 633
308 647
308 661
308 662
308 672
308 694
308 695
309 363
309 386
309 399
309 449
309 580
309 590
309 605
309 622
309 654
309 686
309 692
310 348
310 405
310 462
310 472
310 478
310 515
310 561
310 649
311 339
311 410
311 437
311 481
311 485
311 625
311 674
311 731
312 359
312 381
312 419
312 636
312 666
312 682
312 740
312 743
312 748
313 333
313 364
313 383
313 525
313 595
313 633
313 640
313 670
314 357
314 363
314 478
314 530
314 578
314 593
314 621
314 680
315 391
315 423
315 468
315 486
315 551
315 565
315 615
315 621
315 643
315 713
315 721
316 317
316 363
316 464
316 467
316 510
316 573
316 610
316 625
316 634
316 641
316 667
316 694
316 714
317 320
317 330
317 373
317 413
317 446
317 455
317 478
317 580
317 588
317 652
317 657
317 739
318 326
318 378
318 381
318 436
318 464
318 525
318 549
318 584
318 611
318 666
318 667
318 674
318 709
319 339
319 351
319 471
319 472
319 479
319 510
319 579
319 637
319 711
319 714
320 342
320 438
320 492
320 545
320 569
320 745
321 361
321 411
321 415
321 439
321 443
321 448
321 478
321 543
321 544
321 556
321 590
321 606
321 654
321 727
322 433
322 444
322 553
322 641
322 680
323 330
323 404
323 504
323 515
323 591
323 595
323 646
323 659
323 667
323 678
324 353
324 358
324 381
324 382
324 569
324 596
324 652
324 713
324 741
325 406
325 446
325 460
325 485
325 487
325 500
325 516
325 561
325 690
325 707
326 331
326 348
326 421
326 432
326 436
326 512
326 514
326 543
326 627
326 641
326 683
326 742
326 747
327 345
327 360
327 375
327 400
327 421
327 482
327 537
327 548
327 589
327 639
327 696
327 724
328 349
328 376
328 519
328 567
328 608
329 331
329 359
329 392
329 412
329 464
329 467
329 486
329 500
329 539
329 554
329 577
329 610
329 645
329 650
329 664
329 678
329 680
330 394
330 429
330 585
330 644
330 732
331 469
331 527
331 620
331 667
331 673
332 343
332 348
332 365
332 367
332 377
332 388
332 439
332 457
332 474
332 560
332 565
332 625
332 665
332 666
333 363
333 379
333 467
333 493
333 554
333 571
333 594
333 639
333 654
333 670
333 672
333 714
334 338
334 352
334 403
334 608
334 670
334 697
334 700
334 713
335 394
335 618
335 645
335 657
335 737
336 442
336 502
336 547
336 556
336 567
336 577
336 583
336 587
336 600
336 656
336 701
336 730
336 742
337 482
337 569
337 628
338 360
338 424
338 433
338 530
338 558
338 584
338 592
338 625
338 674
339 346
339 359
339 383
339 404
339 432
339 434
339 445
339 494
339 516
339 568
339 640
339 719
340 426
340 428
340 442
340 505
340 517
340 539
340 554
340 555
340 596
340 612
340 651
340 656
340 677
340 729
341 357
341 380
341 412
341 413
341 435
341 437
341 460
341 470
341 473
341 489
341 565
341 650
341 682
342 369
342 378
342 404
342 414
342 449
342 516
342 561
342 589
342 681
343 350
343 377
343 398
343 400
343 407
343 419
343 474
343 496
343 517
343 569
343 577
343 579
344 510
344 558
344 652
344 659
344 675
344 718
344 720
345 390
345 399
345 452
345 475
345 480
345 494
345 544
345 547
345 572
345 674
345 693
345 702
345 717
346 373
346 383
346 393
346 407
346 413
346 435
346 450
346 539
346 543
346 546
346 643
346 656
346 719
346 721
346 749
347 385
347 481
347 517
347 608
347 623
347 745
348 359
348 399
348 417
348 459
348 477
348 502
348 504
348 541
348 583
349 382
349 407
349 415
349 435
349 611
349 649
349 662
349 664
349 707
349 708
350 395
350 435
350 525
350 579
350 604
350 618
350 663
350 679
350 702
350 738
351 358
351 480
351 507
351 545
351 558
351 563
351 570
351 588
351 592
351 645
351 648
351 687
352 375
352 429
352 456
352 513
352 555
352 564
352 694
352 699
352 744
353 393
353 474
353 591
353 617
353 656
353 682
353 683
353 685
353 724
353 726
354 362
354 365
354 403
354 431
354 487
354 549
354 555
354 596
354 618
354 634
354 690
354 713
355 369
355 412
355 413
355 505
355 512
355 664
355 666
355 707
356 361
356 380
356 532
356 542
356 583
356 609
356 645
356 657
356 665
356 673
357 436
357 446
357 503
357 511
357 529
357 590
357 613
357 641
357 663
357 683
357 684
358 359
358 380
358 456
358 468
358 594
358 628
358 653
358 726
359 372
359 435
359 476
359 546
359 555
359 606
359 611
359 615
359 619
359 665
359 710
360 439
360 481
360 496
360 517
360 540
360 619
360 626
360 654
360 743
361 369
361 391
361 415
361 434
361 519
361 523
361 583
361 608
361 614
361 631
361 655
361 679
361 729
362 408
362 457
362 478
362 502
362 510
362 512
362 520
362 554
362 598
362 611
362 630
362 648
362 661
362 704
363 507
363 509
363 585
363 686
363 688
363 694
364 368
364 380
364 393
364 404
364 419
364 425
364 434
364 442
364 476
364 521
364 589
364 603
364 608
364 637
364 655
364 674
364 694
364 708
364 749
365 396
365 530
365 534
365 579
365 589
365 627
365 657
366 433
366 528
366 635
367 445
367 474
367 523
367 529
367 533
367 653
367 657
367 659
367 730
368 408
368 412
368 593
368 684
368 686
368 696
369 569
369 654
370 393
370 409
370 431
370 452
370 480
370 489
370 508
370 563
370 584
370 598
370 602
370 628
370 666
371 387
371 410
371 431
371 450
371 473
371 474
371 567
371 630
372 411
372 471
372 491
372 493
372 546
372 589
372 632
372 636
372 717
372 726
373 386
373 429
373 434
373 450
373 543
373 581
373 594
373 625
373 741
374 376
374 481
374 528
374 644
374 684
375 544
375 583
375 624
375 679
375 688
375 690
376 393
376 403
376 459
376 464
376 485
376 502
376 564
376 566
376 601
376 649
376 730
376 740
376 745
377 381
377 427
377 431
377 478
377 508
377 609
377 624
377 625
377 627
377 639
377 642
377 653
378 408
378 433
378 451
378 453
378 457
378 482
378 534
378 569
378 580
378 619
378 710
379 439
379 441
379 466
379 485
379 498
379 606
379 621
379 672
379 696
379 713
380 392
380 395
380 434
380 437
380 492
380 494
380 555
380 597
380 618
380 640
380 663
380 716
380 722
381 412
381 439
381 464
381 480
381 566
381 582
381 614
381 720
381 728
382 550
382 584
382 586
382 632
382 633
382 672
382 683
383 448
383 471
383 509
383 559
383 576
383 586
383 620
383 695
384 385
384 395
384 405
384 451
384 475
384 513
384 568
384 596
384 625
384 672
384 680
384 694
385 408
385 467
385 509
385 548
385 620
385 643
385 706
385 740
386 417
386 489
386 531
386 591
386 598
386 671
386 689
387 508
387 529
387 538
387 595
387 651
387 656
387 660
387 744
388 398
388 416
388 466
388 505
388 534
388 546
388 550
388 552
388 567
388 630
388 632
388 651
389 405
389 433
389 486
389 511
389 515
389 533
389 541
389 590
389 599
390 394
390 409
390 450
390 513
390 556
390 689
391 397
391 405
391 430
391 476
391 491
391 520
391 521
391 552
391 563
391 572
391 575
391 598
391 641
391 660
391 682
391 686
391 704
391 718
392 464
392 470
392 536
392 550
392 558
392 656
392 675
393 450
393 518
393 576
393 578
393 611
393 630
393 718
394 437
394 442
394 475
394 521
394 551
394 615
394 681
394 692
394 734
394 740
394 749
395 436
395 489
395 520
395 535
395 541
395 557
395 563
395 586
395 612
396 501
396 519
396 525
396 534
396 539
396 702
396 705
396 711
396 712
397 461
397 468
397 490
397 513
397 532
397 537
397 542
397 565
397 611
397 615
397 736
398 412
398 513
398 559
398 565
398 605
398 642
398 655
398 660
399 418
399 482
399 485
399 499
399 580
399 596
399 598
399 604
399 630
399 694
400 409
400 418
400 432
400 483
400 487
400 532
401 407
401 504
401 526
401 533
401 537
401 670
401 672
402 422
402 522
402 553
402 578
402 595
402 632
402 635
402 670
402 718
402 746
403 429
403 526
403 537
403 565
403 589
403 718
403 744
403 746
404 480
404 503
404 570
404 582
404 592
404 610
404 634
404 635
404 641
404 698
405 436
405 463
405 538
405 552
405 573
405 596
405 660
406 569
406 572
406 588
406 623
406 683
406 692
406 732
406 736
407 490
407 506
407 531
407 541
407 561
407 567
407 588
407 679
407 699
407 709
407 726
407 740
408 418
408 425
408 431
408 475
408 478
408 499
408 547
408 555
408 598
408 624
408 640
408 735
408 744
409 418
409 502
409 569
409 619
409 685
410 426
410 446
410 460
410 472
410 473
410 492
410 559
410 720
411 443
411 450
411 452
411 454
411 500
412 429
412 437
412 527
412 627
412 630
412 645
412 701
412 703
413 418
413 423
413 515
413 517
413 529
413 573
413 577
413 580
413 582
413 605
413 669
413 699
414 452
414 533
414 565
414 575
414 580
414 615
414 644
414 656
414 666
414 724
414 738
415 456
415 492
415 513
415 543
415 676
415 696
415 743
416 465
416 537
416 540
416 552
416 618
416 658
417 463
417 474
417 481
417 536
417 553
417 565
417 599
417 636
417 652
417 718
417 747
418 503
418 528
418 550
418 580
418 592
418 622
418 627
418 694
418 714
418 726
419 511
419 623
419 740
420 429
420 451
420 479
420 537
420 546
420 621
420 685
420 736
421 443
421 483
421 501
421 550
421 555
421 569
421 576
421 632
421 696
421 700
421 740
422 442
422 466
422 492
422 523
422 633
422 703
422 706
423 657
423 702
424 427
424 456
424 467
424 468
424 494
424 629
424 698
424 719
425 487
425 518
425 553
425 579
425 590
425 597
425 614
425 710
426 498
426 532
426 553
426 649
426 692
427 457
427 466
427 476
427 498
427 590
427 628
427 632
427 633
428 439
428 614
428 617
428 667
428 690
429 447
429 455
429 496
429 501
429 671
430 494
430 509
430 518
430 589
430 617
430 651
430 668
430 691
430 715
430 735
431 460
431 464
431 477
431 581
431 649
431 709
431 729
431 743
432 490
432 509
432 547
432 555
432 566
432 595
432 598
432 639
432 666
432 688
433 435
433 449
433 471
433 543
433 565
433 578
433 595
434 477
434 493
434 565
434 599
435 438
435 493
435 508
435 588
435 640
435 659
436 439
436 557
436 730
436 739
437 447
437 456
437 495
437 543
437 578
437 595
437 603
437 628
437 654
437 664
437 695
437 738
437 743
437 748
438 452
438 477
438 480
438 498
438 508
438 581
438 597
438 743
439 484
439 502
439 503
439 524
439 536
439 540
439 541
439 554
439 593
439 613
439 644
439 673
439 696
440 488
440 499
440 572
440 574
440 581
440 588
440 629
440 652
440 689
440 702
440 727
441 580
441 604
441 625
441 695
441 739
442 466
442 483
442 499
442 552
442 611
442 685
443 527
443 534
443 613
443 627
443 675
443 706
444 462
444 600
444 700
445 482
446 471
446 490
446 526
446 556
446 626
446 653
446 656
446 719
447 649
447 652
447 653
447 664
447 675
447 687
448 472
448 494
448 501
448 507
448 519
448 521
448 581
448 583
448 624
448 659
448 663
448 688
449 529
449 582
449 609
449 624
449 679
449 686
449 732
450 456
450 561
450 631
450 639
450 708
450 718
451 494
451 504
451 508
451 547
451 610
451 669
451 696
452 469
452 566
452 569
452 607
452 612
452 614
452 741
453 469
453 474
453 488
453 493
453 496
453 551
453 664
453 705
453 720
453 731
454 554
454 557
454 575
454 698
454 726
455 646
455 708
456 464
456 557
456 562
456 585
456 652
456 654
456 720
456 728
456 739
457 500
457 536
457 553
457 607
458 542
458 623
458 651
458 741
459 521
459 527
459 620
459 707
459 743
460 481
460 527
460 536
460 640
460 644
460 678
461 483
461 484
461 517
461 589
461 646
461 704
461 715
462 589
462 601
462 723
463 470
463 487
463 488
463 509
463 529
463 530
463 538
463 540
463 566
463 603
463 641
463 642
463 697
463 721
463 749
464 485
464 591
464 738
465 528
465 533
465 539
465 540
465 578
465 611
465 614
465 722
466 589
467 469
467 494
467 602
467 702
468 492
468 525
468 542
468 596
468 601
468 649
468 684
468 691
469 514
469 517
469 549
469 592
469 612
469 629
469 647
470 480
470 529
470 609
470 631
470 667
471 484
471 522
471 548
471 551
471 585
471 613
471 626
471 644
471 712
472 500
472 505
472 617
472 685
472 707
472 745
472 748
473 564
473 654
473 667
473 681
473 689
473 692
474 586
474 591
474 600
474 601
474 640
474 655
474 666
474 683
474 747
475 523
475 526
475 564
475 656
475 692
475 735
475 746
476 554
476 633
476 653
476 664
476 667
476 699
477 483
477 564
477 613
477 644
477 689
477 720
478 489
478 511
478 520
478 528
478 560
478 659
478 700
478 734
479 571
479 585
479 687
479 710
480 541
480 547
480 644
480 706
481 492
481 527
481 544
481 631
482 508
482 539
482 549
482 573
482 584
482 699
482 721
483 490
483 509
483 520
483 535
483 565
483 586
483 641
483 682
483 692
484 514
484 567
484 697
484 715
484 747
485 515
485 523
485 559
485 620
485 702
485 721
485 726
486 521
486 564
486 565
486 611
486 645
486 651
486 721
487 492
487 622
487 627
487 629
487 659
487 743
488 594
488 626
488 646
488 651
489 494
489 513
489 573
489 598
489 599
489 611
489 619
489 632
489 643
489 655
489 705
489 710
489 718
490 610
490 619
490 635
490 702
490 733
491 529
491 553
491 658
492 523
492 547
492 625
492 729
493 529
493 546
493 594
493 620
493 657
494 496
494 509
494 527
494 590
494 596
494 615
494 630
494 713
495 536
495 566
495 579
495 717
496 514
497 511
497 559
497 571
497 599
497 638
497 682
497 723
497 726
498 508
498 523
498 559
498 621
498 634
498 748
499 522
499 622
499 673
499 711
500 504
500 513
500 546
500 559
500 686
500 687
501 515
501 580
501 593
501 617
502 523
502 537
502 625
502 724
502 728
502 741
502 744
503 691
503 732
503 740
504 523
504 563
504 627
504 663
504 682
504 736
504 745
505 526
505 530
505 536
505 548
505 566
505 652
505 732
505 747
506 524
506 571
506 627
506 635
506 692
507 515
507 602
507 629
507 638
507 695
507 734
507 738
507 741
508 596
508 623
508 644
508 716
508 725
508 746
509 570
509 572
509 638
509 700
510 549
510 564
510 583
510 616
511 517
511 523
511 553
511 554
511 571
511 631
511 647
511 668
511 671
511 714
512 542
512 737
512 742
512 745
513 561
513 607
513 689
513 740
514 534
514 570
514 585
514 588
515 523
515 524
515 612
515 625
515 648
515 665
515 733
515 742
516 559
516 579
516 581
516 626
516 639
516 643
516 650
516 726
517 598
517 718
517 727
518 556
518 574
518 597
518 628
518 644
518 671
518 692
519 551
519 593
519 603
519 614
519 626
519 636
520 710
521 549
521 707
521 729
522 578
522 582
523 553
523 564
523 615
523 689
523 705
524 544
524 572
524 616
524 622
524 679
524 714
525 545
525 596
525 659
525 673
525 740
526 550
526 599
526 676
527 700
528 530
528 599
528 634
528 638
528 663
528 665
529 626
529 677
529 716
529 733
530 550
530 635
530 696
531 575
531 665
531 694
531 695
531 696
531 716
532 563
532 582
532 615
532 673
532 695
533 574
533 698
533 747
534 547
534 594
534 650
535 635
535 684
536 561
536 575
536 587
536 711
537 561
537 562
537 579
537 594
537 702
538 544
538 597
538 676
539 650
539 712
539 716
539 741
540 573
540 599
540 600
540 610
540 651
540 683
540 691
540 698
540 709
541 545
541 557
541 563
541 573
541 582
541 671
541 700
541 717
542 561
542 711
542 715
542 725
542 737
543 545
543 574
543 631
543 649
543 675
543 676
543 707
544 555
544 564
544 672
544 705
545 647
545 719
546 570
546 619
546 653
546 661
546 669
546 715
547 549
547 570
547 645
547 681
548 585
548 591
548 635
548 709
548 736
548 739
549 556
549 603
549 632
550 558
550 627
550 647
550 662
550 727
550 732
550 739
550 747
551 572
551 607
551 632
551 644
551 671
551 684
551 717
552 590
552 640
552 667
552 690
553 688
554 564
554 571
554 613
554 663
554 685
554 712
554 716
554 737
555 556
555 567
555 582
555 632
555 700
556 675
556 685
556 740
557 558
557 584
557 615
557 624
557 646
557 693
557 703
557 739
558 578
558 693
558 718
558 747
559 562
559 592
559 597
559 599
559 624
559 673
559 726
559 743
560 575
560 602
560 608
560 696
560 714
560 729
561 587
561 608
561 695
562 604
562 660
562 662
563 567
563 577
563 616
563 681
563 727
564 617
564 730
565 582
565 603
565 606
565 632
565 633
565 677
565 713
565 748
566 606
566 632
566 646
566 714
567 585
567 628
567 643
567 665
567 675
567 690
567 707
567 738
567 747
568 641
568 713
568 728
568 739
569 594
569 662
569 726
569 728
569 746
570 579
570 630
570 664
570 688
570 692
570 694
571 584
571 606
571 614
571 636
571 744
572 599
572 639
572 697
572 716
573 654
573 673
574 594
574 617
574 650
574 697
575 621
575 647
576 620
577 643
577 664
577 673
577 690
577 705
578 597
578 607
578 612
578 652
578 718
579 709
580 584
580 596
580 634
580 726
581 606
581 677
581 728
582 661
582 662
583 621
583 634
583 660
583 669
583 731
584 591
584 599
584 619
584 634
585 664
585 729
586 609
586 634
586 645
586 704
587 647
587 662
587 694
587 723
588 595
588 613
588 623
588 639
588 707
588 732
588 745
589 636
589 646
589 739
590 658
590 708
590 729
591 637
591 647
592 603
592 674
592 675
592 710
593 703
594 599
594 658
594 699
594 703
594 724
595 604
595 605
595 614
595 638
595 700
596 652
596 657
596 663
596 713
596 734
596 742
597 628
597 723
598 638
598 648
598 741
599 694
599 729
600 611
600 746
601 669
601 681
601 711
601 734
602 617
602 673
602 711
602 715
603 665
603 684
603 731
603 733
604 683
605 642
606 647
606 682
606 683
606 738
607 639
607 650
607 708
608 632
608 652
608 669
608 678
608 687
608 739
609 634
609 644
609 665
609 710
610 640
610 679
610 719
610 737
611 617
611 640
611 671
612 664
612 704
613 627
613 683
613 691
613 717
614 615
614 709
614 723
615 698
615 710
617 641
617 642
617 745
618 626
618 648
618 649
618 663
619 651
619 669
619 691
619 714
620 717
620 727
621 636
621 645
621 666
621 745
622 663
622 695
623 648
623 665
623 714
624 632
624 665
624 697
624 704
624 737
624 745
625 636
625 653
625 698
625 715
625 741
626 641
627 690
628 661
631 660
631 666
631 668
631 673
631 677
631 727
632 651
632 656
633 650
633 651
633 661
633 690
634 656
634 671
634 674
634 692
634 741
635 639
635 682
635 709
635 715
636 662
636 667
636 696
637 677
637 682
637 719
638 649
638 743
639 649
640 664
640 749
641 643
641 708
642 697
643 710
644 655
644 675
644 681
644 701
644 718
644 721
644 744
644 749
645 674
646 704
646 705
646 737
647 728
648 698
648 703
648 718
648 734
649 650
649 673
649 676
649 748
650 651
650 736
651 658
651 660
652 744
653 696
654 659
654 676
654 705
654 724
655 669
655 709
656 677
656 699
656 713
656 742
657 730
657 738
657 739
658 728
659 713
661 690
661 739
662 666
663 677
663 681
663 696
663 714
664 732
664 749
665 681
665 722
665 727
665 734
666 678
666 702
666 706
667 680
667 692
667 706
667 737
668 695
669 701
669 716
670 726
670 749
671 684
671 686
671 688
671 724
672 728
673 698
673 737
674 693
675 738
676 690
676 706
676 748
677 708
677 738
678 683
679 734
680 686
680 722
681 689
681 691
682 728
685 700
685 711
685 712
686 747
687 707
687 733
688 690
688 702
688 710
688 749
689 709
689 731
690 698
690 717
690 725
690 739
692 729
693 734
695 697
695 710
695 713
696 746
698 703
699 701
701 715
702 746
702 747
710 729
710 737
710 746
711 712
712 726
713 747
715 721
716 746
717 722
718 745
720 734
722 723
724 743
727 745
730 737
733 742
735 744
736 746
740 741
