0 37
0 53
0 110
0 188
0 252
0 287
0 291
0 512
0 695
1 188
1 201
1 233
1 274
1 328
1 349
1 549
1 636
1 684
1 761
1 930
1 938
2 81
2 85
2 306
2 680
2 862
2 965
3 4
3 22
3 34
3 85
3 320
3 349
3 372
3 392
3 570
3 733
4 162
4 191
4 222
4 570
4 626
4 627
4 731
4 974
5 31
5 72
5 160
5 298
6 72
6 90
6 266
6 551
6 628
6 635
6 713
6 789
6 966
7 132
7 486
7 522
7 583
7 766
7 789
7 903
7 964
8 23
8 33
8 355
8 474
8 503
8 784
8 846
9 205
9 236
9 403
9 493
9 718
9 765
9 810
9 952
9 966
10 224
10 601
10 789
11 84
11 178
11 225
11 398
11 411
11 525
11 599
11 612
11 663
11 737
11 783
11 874
11 993
12 131
12 456
12 533
12 563
12 585
12 763
12 946
13 293
13 354
13 597
13 683
13 710
14 40
14 60
14 71
14 446
14 520
14 564
14 645
14 699
14 860
14 909
14 944
15 367
15 448
15 745
15 992
16 19
16 282
16 364
16 401
16 470
16 671
16 674
16 789
16 824
17 42
17 124
17 459
17 488
17 518
17 613
17 680
17 704
17 780
17 788
17 789
17 868
17 893
17 937
17 950
17 983
18 127
18 142
18 154
18 159
18 214
18 331
18 469
18 586
18 766
18 813
18 937
19 133
19 304
19 461
19 741
19 743
20 205
20 208
20 499
20 514
20 628
20 877
20 899
21 157
21 332
21 354
21 973
22 30
22 270
22 391
22 596
22 641
23 37
23 133
23 252
23 400
23 599
23 623
23 904
24 38
24 62
24 92
24 205
24 455
24 460
24 575
24 642
24 974
25 164
25 444
25 482
25 647
25 828
25 889
25 952
26 410
26 715
26 784
26 971
27 74
27 180
27 261
27 465
27 858
27 867
27 921
28 369
28 417
28 446
28 539
28 541
28 574
28 724
28 760
28 778
28 925
28 983
29 47
29 156
29 223
29 267
29 291
29 338
29 641
29 668
29 980
30 58
30 147
30 721
31 376
31 603
32 259
32 651
32 680
32 705
33 173
33 517
33 616
33 648
33 830
33 893
33 906
34 63
34 172
34 180
34 213
34 230
34 412
34 482
34 594
34 780
34 823
35 43
35 107
35 161
35 290
35 368
35 398
35 474
35 489
35 494
35 724
35 814
36 317
36 664
36 929
37 237
37 316
37 705
37 764
37 784
37 911
37 972
38 41
38 157
38 305
38 510
38 718
38 739
38 826
38 832
38 858
38 923
39 145
39 355
39 382
39 516
39 664
39 780
39 986
40 54
40 221
40 238
40 255
40 379
40 442
40 769
40 875
41 345
41 351
41 474
41 533
41 567
41 624
41 743
41 768
41 968
41 998
42 112
42 284
42 385
42 405
42 474
42 832
42 845
42 879
43 166
43 248
43 431
43 447
43 814
43 937
44 448
44 502
45 292
45 527
45 548
45 874
46 143
46 177
46 313
46 401
46 561
46 572
46 749
46 972
47 60
47 252
47 261
47 468
47 832
48 94
48 195
48 234
48 785
48 910
48 935
49 254
49 320
49 443
49 899
49 983
50 152
50 207
50 274
50 275
50 453
50 501
50 595
50 606
50 633
50 719
50 821
50 967
51 181
51 184
51 214
51 234
51 265
51 339
51 344
51 799
51 897
52 177
52 810
52 912
53 66
53 79
53 134
53 218
53 343
53 376
53 494
53 509
53 542
53 743
54 432
54 484
54 532
54 744
54 844
54 910
54 962
55 389
55 541
55 772
55 916
55 956
56 103
56 135
56 355
56 427
56 497
56 619
56 753
56 757
57 85
57 176
57 333
57 335
57 416
57 525
57 604
57 688
57 749
57 751
57 795
57 800
58 173
58 189
58 434
58 461
58 830
58 878
58 919
59 72
59 83
59 160
59 211
59 576
59 675
59 716
59 849
59 947
60 530
60 752
60 808
60 910
60 930
61 232
61 317
61 359
61 516
61 629
61 700
61 874
61 967
62 84
62 141
62 381
62 441
62 599
62 601
62 732
62 765
62 839
62 985
63 101
63 656
63 720
63 863
63 933
63 943
63 999
64 525
64 572
64 661
64 876
64 969
65 119
65 180
65 407
65 947
66 543
66 642
66 828
66 840
66 912
66 960
66 983
67 291
67 532
67 567
68 332
68 392
68 487
68 572
68 773
68 865
68 866
69 345
69 387
69 398
69 535
69 544
69 736
69 860
69 934
69 981
70 153
70 326
70 390
70 801
70 922
70 953
70 957
70 987
71 84
71 265
71 324
71 769
71 941
71 973
72 164
72 342
72 455
72 568
72 728
72 830
72 929
72 987
73 112
73 372
73 408
73 596
73 748
73 782
73 864
73 962
74 146
74 363
74 429
74 573
74 650
74 723
74 769
74 874
74 948
75 94
75 341
75 354
75 512
75 574
76 79
76 86
76 260
76 851
76 884
77 178
77 298
77 420
77 618
77 725
77 842
78 121
78 345
78 445
78 522
78 798
78 827
79 130
79 201
79 240
79 355
79 602
79 652
79 742
79 845
79 861
79 909
80 188
80 206
80 507
80 662
80 688
80 782
80 904
81 268
81 305
81 470
81 618
81 750
81 778
81 800
81 802
82 253
82 359
82 816
82 907
83 460
83 743
84 234
84 422
84 435
84 451
84 531
84 537
84 662
84 682
84 697
84 828
85 112
85 221
85 277
85 287
85 318
85 351
85 468
85 491
85 535
85 586
85 662
85 711
85 718
85 988
86 347
86 429
86 493
86 510
86 570
86 577
86 665
87 237
87 359
87 384
87 442
87 550
87 563
87 599
87 634
87 788
87 797
88 172
88 286
88 512
88 559
88 560
88 663
88 684
88 695
88 718
88 857
88 951
88 955
89 423
89 485
89 540
89 627
89 745
90 659
90 683
90 730
90 863
90 888
90 924
91 310
91 334
91 373
91 461
91 599
91 608
91 716
92 181
92 540
92 796
93 121
93 238
93 252
93 253
93 459
93 467
93 600
93 610
93 811
93 935
94 382
94 455
94 535
94 807
94 851
94 869
94 927
95 277
95 284
95 320
95 859
96 267
96 531
96 566
96 643
96 732
96 801
97 306
97 627
97 630
97 737
97 748
97 913
97 951
98 121
98 309
98 512
98 535
98 637
98 667
98 674
98 926
99 112
99 511
99 558
99 585
99 612
99 701
99 873
100 229
100 262
100 268
100 309
100 496
100 575
100 698
100 743
100 758
100 969
101 179
101 653
101 725
101 902
102 284
102 285
102 347
102 666
102 758
102 779
103 214
103 480
103 953
104 133
104 210
104 356
104 765
105 435
105 666
105 688
105 828
105 923
106 170
106 257
106 342
106 403
106 896
107 206
107 295
107 548
107 779
107 808
107 931
108 238
108 442
108 456
108 510
108 660
108 890
108 945
109 620
109 720
109 801
109 911
109 940
110 126
110 167
110 194
110 219
110 463
110 505
110 625
110 710
110 857
110 927
111 412
111 442
111 582
111 611
111 621
111 657
111 714
111 735
111 809
111 854
111 880
111 918
112 316
112 447
112 465
112 858
112 890
112 964
113 464
113 604
113 664
113 757
113 862
114 482
114 489
114 628
114 746
114 755
114 996
115 136
115 163
115 327
115 409
115 436
115 578
115 628
115 760
115 786
115 834
115 885
116 188
116 233
116 296
116 321
116 541
117 141
117 290
117 357
117 381
117 475
117 557
117 676
117 750
117 782
118 128
118 228
118 306
118 329
118 485
118 771
118 860
118 914
118 964
119 340
119 360
119 372
119 651
119 731
119 789
119 926
119 972
120 197
120 273
120 281
120 364
120 387
120 389
120 999
121 133
121 189
121 234
121 342
121 364
121 611
121 660
121 884
122 128
122 155
122 612
122 728
122 857
122 863
122 985
123 285
123 464
123 531
123 563
123 659
123 835
123 994
124 282
124 434
124 474
124 776
124 875
124 885
125 207
125 387
125 476
125 523
125 531
125 663
125 915
125 945
126 154
126 344
126 553
127 168
127 564
127 760
127 900
128 130
128 306
128 389
128 449
128 718
129 216
129 230
129 249
129 547
129 559
129 772
129 773
129 854
130 471
130 511
130 656
130 893
130 906
131 309
131 311
131 452
131 671
131 702
131 729
131 745
131 865
131 906
131 916
131 929
131 991
132 203
132 216
132 458
132 473
132 521
132 547
132 697
132 827
132 908
133 187
133 262
133 273
133 294
133 480
133 803
133 882
133 987
134 150
134 190
134 200
134 383
134 423
134 427
134 560
134 773
135 506
135 615
135 730
135 748
136 254
136 564
136 761
137 412
137 508
137 648
137 662
137 809
137 884
137 922
137 982
138 166
138 243
138 347
138 397
138 598
139 340
139 358
139 454
139 537
139 554
139 618
139 655
139 663
139 790
139 817
140 360
140 394
140 485
140 526
140 548
140 554
140 595
140 873
141 161
141 196
141 198
141 288
141 458
141 524
141 649
141 663
141 909
141 960
142 195
142 461
142 795
142 867
142 871
143 165
143 199
143 488
143 503
143 510
143 877
144 207
144 263
144 273
144 395
144 456
144 491
144 750
144 795
144 846
144 927
144 956
145 214
145 242
145 284
145 579
145 913
145 916
146 195
146 378
146 507
146 665
146 910
147 291
147 420
147 561
147 580
147 644
147 773
147 802
147 819
147 884
147 962
148 186
148 288
148 409
148 557
148 790
148 880
148 910
149 181
149 227
149 334
149 472
149 572
149 836
149 990
150 307
150 975
151 249
151 411
151 623
151 632
151 936
151 938
152 275
152 495
152 548
152 647
152 778
152 824
153 209
153 232
153 282
153 341
153 348
153 399
153 408
153 450
153 478
153 490
153 621
153 652
153 823
153 849
153 983
154 166
154 173
154 193
154 255
154 306
154 319
154 339
154 365
154 416
154 469
154 712
155 445
155 596
155 899
155 978
156 164
156 273
156 456
156 485
156 546
156 617
156 746
156 768
156 832
157 232
157 352
157 372
157 559
157 811
157 817
157 953
157 991
158 315
158 783
158 860
158 983
159 227
159 374
159 527
159 665
159 765
159 786
159 798
160 240
160 365
160 415
160 431
160 433
160 722
160 860
160 916
161 213
161 274
161 395
161 603
161 616
161 714
161 925
162 275
162 388
162 415
162 475
162 505
162 607
162 645
162 776
162 853
162 859
163 165
163 187
163 190
163 628
163 698
163 917
163 979
164 205
164 309
164 562
164 684
164 755
164 783
164 881
165 226
165 252
165 268
165 496
165 515
165 652
165 693
165 752
165 901
165 953
166 786
166 856
166 918
167 254
167 276
167 406
167 716
167 762
168 241
168 249
168 400
168 410
168 427
168 520
168 625
168 960
169 638
169 658
169 714
169 778
169 779
169 880
169 939
170 437
170 564
170 742
171 448
171 473
171 492
171 565
171 784
171 914
171 982
172 310
172 447
172 451
172 502
172 526
172 579
172 684
172 787
172 790
173 246
173 276
173 371
173 394
173 397
173 513
173 524
173 630
173 750
173 916
174 227
174 346
174 875
175 442
175 554
175 594
175 631
175 764
175 826
175 861
175 937
176 992
177 327
177 861
178 237
178 241
178 304
178 336
178 526
179 326
179 386
179 486
179 707
179 755
179 930
180 308
180 478
180 616
180 634
180 638
181 182
181 302
181 435
181 508
181 656
181 742
181 775
181 789
181 815
181 846
181 969
181 999
182 184
182 247
182 925
182 947
182 953
183 205
183 386
183 425
183 643
183 665
183 839
183 950
184 377
184 471
184 589
184 605
185 217
185 253
185 490
185 508
185 509
185 593
185 644
185 853
185 959
186 688
186 763
186 861
187 263
187 389
187 729
187 885
187 889
188 273
188 295
188 435
188 539
188 663
188 668
188 731
188 745
188 832
189 192
189 202
189 408
189 676
189 734
189 880
190 292
190 365
190 541
190 583
190 639
190 709
191 263
191 356
191 371
191 610
191 818
191 868
191 982
192 306
192 451
192 456
192 511
192 546
193 209
193 217
193 264
193 438
193 469
193 506
193 718
193 817
193 839
194 200
194 273
194 474
194 502
194 631
194 682
194 695
194 717
194 785
194 947
194 963
195 228
195 286
195 303
195 433
195 437
195 478
195 534
195 748
195 815
195 867
195 912
196 335
196 630
196 645
196 697
197 437
197 451
197 470
197 617
197 819
197 894
197 995
198 330
198 480
198 574
198 866
198 874
198 930
198 957
199 418
199 451
199 474
199 716
199 794
199 864
199 969
200 640
200 715
200 796
200 834
201 207
201 286
201 391
201 413
201 452
201 552
201 989
202 252
202 292
202 577
202 580
202 598
202 631
202 639
202 671
202 675
202 711
203 281
203 292
203 685
203 717
204 226
204 238
204 488
204 519
204 603
204 766
205 413
205 439
205 653
205 716
205 941
206 258
206 259
206 359
206 639
206 682
206 972
207 439
207 456
207 525
207 638
207 656
207 800
207 864
207 906
207 938
208 248
208 436
208 485
208 529
208 940
208 968
209 227
209 237
209 594
209 701
209 889
209 905
210 212
210 458
210 536
210 615
210 627
210 749
210 762
210 770
210 802
210 831
211 270
211 286
211 326
211 439
211 861
211 929
212 272
212 428
212 481
212 696
212 707
212 751
212 872
213 245
213 256
213 262
213 337
213 373
213 543
213 646
213 688
214 388
214 522
214 610
214 711
214 753
214 806
215 319
215 900
215 952
215 972
216 340
216 408
216 474
216 566
216 621
216 661
216 816
216 880
217 259
217 322
217 427
218 435
218 652
218 666
218 857
218 912
219 252
219 286
219 624
220 246
220 275
220 291
220 322
220 324
220 354
220 543
220 619
220 728
220 866
221 310
221 319
221 515
221 604
221 818
221 860
222 385
222 821
222 823
222 895
223 505
223 588
223 789
223 854
223 938
224 267
224 490
224 580
224 623
224 760
224 854
224 885
225 240
225 387
225 608
225 788
225 816
225 989
226 404
226 540
226 884
227 236
227 670
227 712
227 828
227 833
227 871
228 251
228 495
228 496
228 635
228 732
228 975
229 326
229 347
229 467
229 499
229 522
229 807
230 246
230 279
230 716
231 250
231 252
231 370
231 386
231 433
231 438
231 472
231 555
231 629
231 745
231 908
231 955
232 240
232 454
232 508
232 574
232 690
233 637
233 712
233 869
233 954
234 413
234 531
234 699
234 732
234 838
235 703
236 366
236 510
236 761
236 785
237 318
237 355
237 462
237 495
237 509
238 318
238 767
238 803
238 853
238 854
238 857
238 975
239 444
239 546
239 618
239 783
239 846
239 889
239 994
240 383
240 409
240 774
240 926
241 584
241 615
241 634
241 709
241 742
241 853
241 878
241 970
241 985
242 278
242 476
242 726
243 319
243 323
243 430
243 677
243 704
243 780
243 782
243 796
243 829
244 302
245 267
245 553
245 782
245 929
245 960
246 291
246 572
246 636
246 892
247 266
247 326
247 422
247 544
247 546
247 646
247 648
247 801
247 821
247 948
248 510
248 511
248 772
248 923
249 509
249 542
249 549
249 558
249 900
249 901
249 920
249 993
250 253
250 362
250 407
250 465
250 791
251 262
251 285
251 357
251 471
251 521
251 768
251 807
251 905
251 984
252 771
252 911
253 254
253 330
253 635
253 874
253 883
253 941
254 328
254 356
254 718
254 733
254 787
255 460
255 466
255 526
255 571
255 633
255 721
255 760
255 779
255 876
256 275
256 315
256 594
256 833
257 297
257 355
257 585
257 645
257 882
257 969
257 971
258 382
258 422
258 425
258 432
258 445
258 452
258 491
258 593
258 739
258 815
258 885
258 909
258 961
258 969
259 260
259 263
259 474
259 506
259 767
259 775
259 812
259 883
259 992
260 283
260 447
260 548
260 691
260 758
260 830
260 863
261 402
261 443
261 505
261 527
261 536
261 733
261 876
262 290
262 312
262 457
262 502
262 624
262 678
262 738
262 797
262 983
263 370
263 593
263 652
263 716
263 876
263 931
264 496
264 544
264 568
265 290
265 567
265 654
266 327
266 528
266 604
266 631
267 399
267 517
267 518
267 544
267 731
267 758
267 921
268 321
268 406
268 431
268 500
268 710
268 743
269 410
269 439
269 528
269 765
269 965
269 991
270 281
270 319
270 379
270 481
270 788
270 790
270 804
270 918
271 463
271 505
271 615
271 984
272 529
272 627
272 954
273 600
273 668
273 979
274 522
274 605
274 682
274 832
274 968
275 410
275 453
275 599
275 862
275 927
275 944
276 377
276 404
276 855
276 874
277 333
277 669
277 830
277 915
278 609
278 864
278 952
278 989
279 677
279 702
279 899
280 450
280 469
280 567
280 838
280 956
281 622
281 637
282 345
282 420
282 512
282 606
282 741
282 948
283 297
283 430
283 494
283 812
284 428
284 463
284 608
284 685
284 706
284 857
284 935
285 329
285 394
285 521
285 569
285 579
285 849
286 370
286 558
286 580
286 668
286 702
286 777
286 887
287 435
287 647
287 715
287 734
287 757
287 867
287 891
288 298
288 301
288 553
288 590
288 618
288 637
288 745
288 760
288 935
289 348
289 422
289 528
289 543
289 869
290 346
290 437
290 487
290 504
290 827
291 392
291 565
291 592
291 803
292 335
292 346
292 353
292 394
292 451
292 525
292 740
292 811
292 819
292 862
293 333
293 395
293 405
293 409
293 551
293 742
293 976
294 312
294 527
294 577
294 823
295 522
295 587
295 626
295 737
295 782
295 850
296 297
296 309
296 430
296 476
296 533
296 576
296 656
297 401
297 540
297 719
297 721
297 786
297 985
298 357
298 395
298 556
298 725
298 772
298 888
298 895
298 929
299 559
299 665
299 702
299 774
299 862
299 868
299 884
300 303
300 363
300 934
301 661
301 842
301 845
301 881
301 891
301 964
302 635
302 642
302 703
302 865
302 905
302 908
303 464
303 614
303 636
303 693
304 329
304 617
304 691
304 708
304 710
305 406
305 452
305 471
305 724
305 820
305 833
305 943
305 950
305 960
306 666
306 730
306 821
306 945
307 342
307 501
307 518
307 579
307 583
307 890
308 761
309 641
309 657
309 736
310 368
310 505
310 652
310 845
310 916
310 960
311 487
312 416
312 429
312 469
312 571
312 771
312 781
312 799
313 340
313 392
313 465
313 573
313 637
313 648
313 722
313 852
313 923
314 350
314 556
314 733
314 768
315 576
315 628
315 762
315 878
316 339
316 521
316 562
316 806
316 893
317 668
317 731
317 753
317 952
317 990
318 408
318 451
318 562
318 846
318 855
318 943
319 392
319 404
319 455
319 483
320 440
320 545
320 788
320 820
320 903
321 322
321 495
322 549
322 595
322 683
322 915
323 363
323 482
323 549
323 711
323 768
323 799
323 927
324 466
324 469
325 387
325 406
325 417
325 476
325 483
325 537
325 551
325 701
325 841
325 919
326 352
326 377
326 428
326 539
326 586
326 809
326 813
326 846
326 961
327 347
327 436
327 687
327 693
327 763
327 878
327 922
328 350
328 675
328 681
328 932
329 344
329 456
329 479
329 518
329 587
329 794
329 819
329 839
330 482
330 596
330 809
330 917
330 988
331 674
331 675
331 764
331 770
331 958
332 436
332 571
332 650
333 361
333 646
333 667
333 858
333 998
334 928
335 370
335 431
335 604
335 778
335 798
335 800
336 506
336 526
336 900
336 991
337 579
337 620
337 639
338 420
338 737
338 848
339 386
339 521
339 889
339 971
339 991
340 388
340 398
340 578
340 619
340 709
340 948
341 443
341 654
341 797
341 812
341 838
342 508
342 515
342 578
342 667
342 705
342 834
343 475
343 512
343 516
343 688
344 387
344 529
344 755
344 801
344 849
344 986
344 993
345 359
345 659
345 945
346 354
346 510
346 576
346 842
346 938
347 665
347 756
347 954
347 979
348 422
348 436
348 483
348 785
348 859
349 495
349 695
350 383
350 433
350 441
350 543
350 572
350 831
350 862
351 359
351 439
351 471
351 535
351 701
351 781
351 898
351 906
351 970
351 979
352 460
352 473
352 771
353 425
353 619
353 661
353 946
354 357
354 364
354 377
354 452
354 486
354 561
354 607
354 613
354 899
355 584
355 882
356 554
356 706
357 387
357 408
357 485
357 503
357 568
357 829
357 925
357 964
357 994
359 378
359 800
359 892
359 940
360 460
360 603
361 803
362 367
362 537
362 559
363 823
363 857
363 905
363 948
364 411
364 449
364 655
364 771
364 797
364 928
365 677
365 780
365 814
366 477
366 794
366 831
367 667
367 956
368 411
368 461
368 479
368 589
368 870
368 988
369 622
369 814
370 436
370 511
370 794
370 870
371 382
371 392
371 668
371 803
371 887
371 941
372 393
372 423
372 636
372 659
372 865
373 451
373 452
373 469
373 625
373 631
374 427
374 459
374 470
374 684
374 751
374 754
374 994
375 478
375 738
375 739
376 411
376 630
376 682
376 960
377 450
377 649
377 664
377 729
377 863
377 955
377 969
378 510
378 622
378 758
378 932
379 538
379 550
379 698
379 716
379 770
379 808
379 923
380 456
380 656
380 915
380 982
381 963
382 398
382 590
382 939
382 989
383 507
383 687
384 414
384 606
384 754
384 822
384 833
385 395
385 439
385 442
385 516
385 557
385 763
385 781
385 817
385 861
385 868
385 936
386 515
387 396
387 764
387 830
387 918
388 480
388 627
388 700
388 878
389 434
389 614
389 818
389 878
389 954
389 991
390 604
390 642
390 760
390 771
390 904
390 941
391 602
392 655
393 394
393 534
393 649
393 952
394 411
394 444
394 460
394 698
394 856
394 906
395 445
395 481
395 511
395 525
395 532
395 554
395 601
395 614
395 638
395 923
396 640
396 960
397 837
398 450
398 707
399 612
399 634
399 792
399 833
399 914
399 961
400 448
400 587
400 788
400 877
400 920
401 503
401 642
401 705
401 977
402 405
402 470
402 509
402 543
402 874
403 419
403 425
403 597
403 871
403 926
404 707
404 800
404 879
404 991
405 464
405 575
405 651
405 685
405 739
405 886
406 421
406 481
406 523
406 658
406 705
406 733
406 946
407 436
408 441
408 448
408 809
408 923
408 982
409 539
409 729
409 924
410 435
410 621
410 670
410 692
411 807
411 973
412 461
412 521
412 531
412 760
413 431
413 813
414 507
414 798
414 902
414 932
415 530
415 892
415 997
416 468
416 858
417 434
417 534
417 734
417 743
417 976
418 459
418 790
418 944
418 979
419 617
419 660
419 681
419 919
419 942
420 548
420 568
420 819
420 860
420 901
420 964
421 477
421 550
421 592
421 620
421 642
421 661
421 738
421 940
422 576
422 721
422 894
422 912
423 493
423 515
423 615
423 624
423 640
423 830
424 603
424 627
424 696
424 876
424 961
425 633
425 740
425 897
425 939
426 589
426 670
426 746
426 753
426 936
426 943
427 506
427 744
427 889
428 467
428 603
428 638
428 673
428 873
428 890
428 954
429 470
429 558
429 588
429 619
429 673
429 782
429 833
430 507
430 517
430 663
430 773
431 480
431 494
431 567
431 765
431 893
432 467
432 660
432 666
432 691
432 701
432 702
432 830
433 571
433 589
433 715
433 778
433 929
434 646
434 692
434 901
435 524
435 640
435 675
435 747
435 773
435 906
436 552
436 610
436 725
436 738
437 450
437 597
437 615
437 645
437 772
437 881
438 448
438 545
438 677
438 731
438 739
438 775
438 893
438 978
439 510
439 539
439 602
439 683
439 689
439 730
439 811
440 629
440 639
441 475
441 753
441 760
441 960
442 660
442 735
443 526
443 686
443 796
444 621
444 682
444 723
444 816
444 947
445 469
445 486
445 636
445 835
445 841
445 863
446 545
446 717
446 758
446 987
447 501
447 504
447 605
447 643
447 677
447 861
447 884
447 956
448 548
448 607
448 723
448 777
448 861
449 512
449 552
449 611
449 869
449 904
449 917
450 567
450 761
451 573
451 619
451 664
451 734
451 830
451 886
451 974
452 514
452 596
452 863
453 508
453 989
454 671
454 785
455 463
455 490
455 547
455 594
455 738
455 841
455 888
455 948
456 622
456 774
456 779
456 863
456 868
457 620
457 730
457 848
457 891
458 673
458 689
458 770
459 675
459 709
459 764
459 775
459 858
460 760
460 769
460 801
460 839
461 501
461 538
461 661
461 723
461 740
461 784
461 826
461 841
461 848
462 707
462 799
462 832
462 952
463 752
463 798
463 916
463 934
463 953
464 888
464 992
465 500
465 590
466 499
466 597
466 611
466 612
466 628
466 809
466 820
466 953
467 528
467 553
467 565
467 584
467 925
467 957
468 522
468 601
468 604
468 612
468 777
468 847
468 973
468 982
469 477
469 528
469 538
469 573
469 759
469 778
471 588
471 743
471 748
471 842
471 872
471 935
472 864
472 952
473 507
473 546
473 665
473 695
473 918
473 938
474 550
474 571
474 702
474 716
474 753
475 518
475 594
475 653
475 928
475 934
476 496
476 503
476 646
477 508
477 624
477 832
477 967
478 507
478 710
478 857
478 980
479 908
479 972
480 509
480 575
480 621
480 807
480 848
480 868
481 646
481 682
482 512
482 562
482 574
482 577
482 801
482 874
482 950
482 956
483 532
483 754
484 514
484 525
484 526
484 608
484 614
484 676
484 677
484 678
484 764
484 838
484 843
484 863
484 969
485 497
485 517
485 651
485 781
486 990
487 574
487 599
487 613
487 671
487 724
487 791
487 845
487 896
487 911
487 930
488 535
488 761
488 897
488 978
489 795
489 902
489 965
489 976
490 609
490 686
491 673
491 836
491 869
491 936
492 562
492 589
492 608
493 548
493 571
493 609
493 861
493 902
493 960
493 992
494 512
494 517
494 574
494 593
494 624
494 900
495 529
495 948
495 971
496 571
496 739
497 613
497 690
497 843
498 529
498 557
498 605
498 609
498 719
498 846
499 705
499 891
500 504
500 733
501 563
501 616
501 751
502 660
502 715
503 672
503 718
503 852
503 896
503 904
503 912
504 782
504 824
505 852
505 875
507 509
507 523
507 553
507 919
508 524
508 660
508 677
508 708
508 741
508 901
508 971
509 531
509 541
509 586
509 809
509 947
510 524
510 755
510 775
510 793
510 796
511 797
511 943
512 608
512 696
512 887
512 934
512 992
513 643
513 743
513 808
513 877
513 889
514 572
514 674
514 729
514 768
515 526
515 706
515 754
515 769
515 993
516 673
517 527
517 836
517 860
517 929
517 935
517 964
518 719
518 864
518 894
519 573
519 845
519 879
520 756
521 578
521 922
522 588
522 674
522 908
522 936
523 552
523 572
523 853
524 565
524 600
524 669
524 892
525 566
526 586
526 621
526 730
526 775
526 967
527 583
527 628
527 858
527 860
527 933
528 559
528 576
528 734
528 761
528 803
528 890
528 904
529 710
529 723
529 794
529 915
530 551
530 970
531 559
531 706
531 853
532 631
532 648
532 670
532 840
532 863
532 882
532 950
533 583
533 942
534 640
534 666
534 778
534 911
534 939
535 653
535 708
535 710
535 900
535 947
535 974
535 985
536 835
536 924
536 981
536 987
537 612
537 619
537 664
537 723
537 735
537 780
537 807
537 863
538 558
538 573
538 576
538 651
538 697
538 899
538 983
539 562
539 694
539 813
539 885
539 906
540 887
540 938
541 578
541 728
541 891
541 987
542 774
542 863
542 867
542 940
543 785
543 836
543 912
544 672
544 789
544 817
544 868
544 926
544 943
544 985
544 999
545 837
546 677
546 736
547 779
547 819
548 579
548 616
548 702
548 906
548 951
549 576
549 601
549 706
549 842
550 718
550 964
551 577
551 663
551 781
551 837
551 841
551 965
552 680
552 696
552 736
552 792
552 807
552 916
553 585
553 606
553 869
553 992
554 597
554 718
554 823
554 825
554 830
554 895
554 935
555 801
555 836
555 964
556 563
556 833
557 719
558 608
558 798
558 815
559 708
559 791
559 912
560 700
560 776
560 986
561 713
561 777
561 833
562 574
562 664
562 696
562 773
563 675
563 956
564 666
564 667
564 746
564 762
564 887
565 589
565 628
565 704
565 960
566 597
566 903
567 707
567 938
567 978
568 735
568 830
568 947
570 585
571 796
571 863
571 882
571 922
572 701
572 740
572 879
572 893
573 780
573 821
574 605
574 794
574 856
574 883
574 900
574 906
575 600
575 915
575 936
577 642
577 741
577 748
577 835
578 728
578 782
578 799
578 832
579 706
580 595
580 621
580 635
580 676
580 918
581 645
581 839
581 886
582 757
582 773
582 793
582 933
583 907
583 956
584 670
584 922
584 989
585 981
586 657
586 699
586 716
586 825
587 601
587 733
587 782
587 793
587 884
587 974
588 606
588 654
588 770
588 790
589 642
589 899
589 977
589 987
590 652
590 967
591 742
592 693
592 699
592 753
592 869
593 647
593 912
594 598
594 888
594 893
595 658
595 666
595 687
595 878
596 659
596 724
596 728
596 897
596 942
596 952
597 652
597 681
597 717
597 777
597 852
597 887
597 920
598 618
598 669
598 723
598 886
599 665
599 904
600 641
600 702
600 794
600 837
600 922
601 887
601 980
602 718
603 661
604 718
604 897
605 891
605 979
606 646
606 731
606 751
606 800
606 899
606 913
606 962
607 845
607 873
607 893
608 716
608 840
608 964
609 664
609 865
610 689
610 719
610 737
610 826
610 858
610 951
611 792
611 830
611 919
612 652
612 789
612 863
613 656
613 852
613 940
613 952
613 955
614 704
614 714
614 720
614 746
614 778
614 890
615 958
615 985
616 653
616 740
616 902
617 966
617 985
618 767
618 827
618 949
619 730
619 812
619 821
619 828
619 886
620 870
620 945
620 996
621 667
621 801
621 815
621 915
621 947
622 772
622 793
622 895
623 671
623 723
623 764
625 697
625 751
625 768
625 773
625 794
625 811
625 827
626 817
626 883
628 760
628 787
628 961
628 982
629 649
629 706
629 805
629 809
629 947
630 666
631 639
631 642
631 691
631 713
631 745
631 799
631 986
632 715
632 850
632 947
633 661
633 680
633 856
633 864
633 918
634 689
634 751
634 753
634 976
635 679
636 712
636 767
636 877
636 975
636 989
638 651
638 870
639 644
639 645
639 954
639 963
639 985
639 987
640 658
640 687
640 710
640 909
641 703
641 871
641 901
642 668
642 686
642 711
642 730
642 743
642 926
643 722
643 988
644 648
644 818
645 788
645 894
646 767
646 885
646 928
646 973
646 987
647 699
647 700
647 721
648 764
648 860
648 891
648 896
649 710
649 887
649 921
650 844
650 849
650 890
650 956
651 677
651 752
651 764
652 686
652 792
652 932
653 947
654 669
655 702
655 756
656 710
656 926
659 800
659 874
659 934
660 707
660 788
660 951
660 968
661 835
662 897
663 736
663 831
663 861
663 879
665 822
665 866
665 967
665 983
666 687
666 717
666 778
666 810
666 819
666 966
667 681
667 842
667 847
667 855
667 874
667 959
668 714
668 883
669 793
669 796
670 684
670 723
671 711
671 843
671 947
672 691
672 727
672 759
672 960
673 811
673 829
673 913
673 972
674 681
674 850
675 719
675 983
676 846
676 905
677 810
677 829
677 856
678 760
679 736
679 958
680 834
681 700
681 740
681 843
682 747
682 783
682 875
683 793
683 826
683 886
683 915
683 946
683 947
683 981
683 990
684 893
684 936
685 716
685 736
685 757
686 914
686 938
687 796
687 826
687 868
687 914
687 978
688 857
689 740
690 804
690 944
690 987
691 896
692 893
692 945
693 787
693 958
694 812
694 849
694 913
695 724
695 797
695 874
695 927
697 815
698 904
698 917
701 756
701 801
701 802
701 912
702 862
703 754
703 804
703 820
704 744
704 847
704 904
705 964
706 892
706 901
706 984
706 992
707 829
707 957
708 753
708 781
708 831
709 855
710 802
711 758
711 823
711 893
712 770
712 814
712 940
712 998
714 780
714 781
714 852
714 901
717 723
717 726
718 775
718 952
719 926
720 830
720 859
720 917
721 739
722 725
722 866
722 978
723 778
723 947
723 971
724 795
724 919
725 817
725 846
726 994
727 732
727 805
727 886
727 945
728 747
728 820
728 944
729 771
729 839
729 930
730 863
730 937
731 820
731 859
731 883
731 938
732 850
732 944
732 964
733 801
733 818
733 866
734 797
734 926
735 748
735 814
735 822
735 834
735 868
735 919
736 750
736 818
736 854
738 776
738 827
739 753
739 817
739 958
741 833
741 887
741 973
742 821
742 891
742 924
744 748
744 824
744 886
744 891
744 943
744 995
745 839
745 944
745 952
745 966
747 939
747 995
748 763
748 785
748 801
748 830
749 764
749 797
750 804
751 832
751 954
751 966
752 900
752 980
753 809
753 810
753 891
755 779
755 803
755 821
755 859
755 908
755 995
756 968
756 998
757 884
757 965
758 984
759 841
759 843
759 860
760 773
760 918
760 958
761 768
761 829
761 916
762 778
762 813
762 883
764 875
764 998
767 923
767 925
768 972
769 838
769 900
771 935
773 927
773 976
774 926
774 982
775 797
775 856
775 989
776 789
776 872
777 882
777 919
777 957
777 973
778 811
778 854
778 910
778 918
778 972
779 829
779 850
780 922
780 951
781 833
782 805
782 852
782 996
784 871
784 965
785 973
787 829
787 962
788 832
788 925
788 947
789 854
790 970
792 821
794 828
794 973
795 801
795 857
795 924
796 820
796 988
798 812
798 857
798 885
798 981
799 855
799 877
802 819
802 825
802 832
802 921
803 863
805 982
806 836
806 867
807 814
807 856
807 976
807 978
808 978
808 981
809 946
809 973
811 837
811 896
811 909
812 852
813 938
814 845
814 864
814 950
814 974
816 924
817 885
817 902
817 978
817 996
817 999
818 988
819 979
821 835
822 898
822 991
823 852
823 929
823 935
824 934
825 867
825 905
827 830
828 843
829 917
830 914
831 901
831 956
832 921
832 932
832 940
833 895
836 986
837 948
838 970
841 911
842 957
842 982
842 993
844 971
845 973
845 994
847 882
847 904
847 990
848 955
849 906
851 896
851 954
852 878
852 958
853 984
855 908
855 976
857 922
857 964
857 979
858 891
858 925
859 881
859 889
860 902
860 939
860 996
861 982
863 958
865 900
865 933
865 934
868 875
868 900
869 934
871 895
873 915
873 936
875 941
876 900
876 947
879 942
881 882
881 988
883 952
884 894
888 929
888 956
889 945
891 973
891 981
892 973
893 971
894 970
901 999
903 923
904 967
906 976
906 977
908 934
908 943
908 955
911 949
912 975
912 977
917 918
917 982
918 944
918 984
921 935
921 939
921 979
923 978
924 928
927 941
928 992
928 995
932 995
934 948
935 958
939 946
941 980
944 988
947 973
947 985
948 979
951 962
953 964
955 994
959 966
965 993
966 981
967 976
974 983
979 984
983 987
983 988
984 990
