0 10
0 54
0 60
0 63
0 117
0 174
0 176
0 197
0 207
0 214
0 231
0 310
0 349
0 385
0 481
1 3
1 21
1 36
1 48
1 89
1 103
1 133
1 150
1 346
1 370
1 381
1 486
1 487
2 20
2 57
2 70
2 136
2 152
2 166
2 186
2 222
2 251
2 259
2 261
2 272
2 284
2 301
2 303
2 318
2 325
2 336
2 369
2 379
2 388
2 397
2 412
2 413
2 414
2 415
2 471
2 472
2 485
3 83
3 91
3 137
3 177
3 187
3 188
3 323
3 347
3 360
3 364
3 376
3 382
3 390
3 433
3 479
3 489
4 55
4 64
4 126
4 143
4 151
4 178
4 206
4 231
4 247
4 254
4 261
4 353
4 406
4 409
4 429
4 452
4 453
4 467
5 36
5 55
5 106
5 116
5 203
5 213
5 216
5 221
5 259
5 271
5 278
5 287
5 335
5 351
5 371
5 395
5 405
5 421
5 450
5 498
6 35
6 45
6 69
6 105
6 106
6 107
6 138
6 156
6 169
6 179
6 220
6 277
6 337
6 357
6 365
6 390
6 415
6 446
6 455
6 483
6 497
7 75
7 189
7 196
7 213
7 216
7 223
7 270
7 274
7 378
7 438
7 451
7 462
7 496
8 27
8 44
8 47
8 57
8 89
8 122
8 149
8 168
8 187
8 202
8 213
8 240
8 288
8 320
8 332
8 410
8 424
8 462
9 26
9 43
9 45
9 81
9 92
9 94
9 106
9 130
9 139
9 169
9 207
9 209
9 212
9 231
9 282
9 320
9 346
9 376
9 384
9 385
9 389
9 447
10 147
10 193
10 203
10 204
10 256
10 295
10 310
10 359
10 371
10 410
10 418
11 32
11 36
11 49
11 88
11 95
11 189
11 195
11 214
11 337
11 373
11 388
11 401
11 402
11 431
11 432
11 466
11 471
11 472
11 495
12 34
12 43
12 65
12 85
12 108
12 126
12 252
12 291
12 325
12 381
12 402
12 436
12 446
13 16
13 20
13 43
13 52
13 61
13 99
13 129
13 168
13 197
13 198
13 216
13 237
13 288
13 301
13 353
13 385
13 405
13 443
14 19
14 40
14 87
14 198
14 255
14 272
14 300
14 336
14 372
14 374
14 376
14 386
14 395
14 433
14 489
15 16
15 32
15 43
15 54
15 99
15 199
15 230
15 287
15 289
15 297
15 318
15 338
15 346
15 350
15 408
15 458
15 493
15 494
16 228
16 247
16 263
16 264
16 297
16 298
16 366
16 383
16 451
16 456
16 459
16 491
17 47
17 51
17 52
17 84
17 104
17 128
17 163
17 196
17 233
17 333
17 374
17 377
17 470
17 473
17 494
18 34
18 50
18 65
18 78
18 102
18 104
18 106
18 121
18 156
18 168
18 232
18 248
18 274
18 296
18 316
18 327
18 356
18 357
18 376
18 423
18 480
19 29
19 38
19 59
19 94
19 97
19 142
19 144
19 154
19 168
19 172
19 199
19 219
19 226
19 237
19 249
19 281
19 282
19 303
19 321
19 345
19 375
19 412
19 455
20 22
20 52
20 123
20 129
20 165
20 171
20 188
20 252
20 269
20 289
20 346
20 379
20 390
20 411
20 417
20 473
21 53
21 104
21 108
21 118
21 153
21 243
21 246
21 308
21 338
21 375
21 433
21 437
21 453
21 481
21 492
21 494
22 23
22 30
22 43
22 73
22 84
22 129
22 151
22 171
22 191
22 218
22 241
22 248
22 268
22 325
22 336
22 362
22 369
22 378
22 412
22 465
22 493
23 111
23 132
23 155
23 162
23 180
23 276
23 281
23 283
23 305
23 333
23 386
23 411
23 449
23 476
24 51
24 60
24 62
24 107
24 109
24 112
24 183
24 218
24 291
24 308
24 345
24 348
24 412
24 431
24 439
24 443
24 470
24 495
25 55
25 64
25 88
25 136
25 168
25 249
25 268
25 304
25 373
25 403
25 448
25 498
26 37
26 128
26 132
26 142
26 172
26 203
26 261
26 281
26 334
26 354
26 359
26 378
26 383
26 436
26 471
27 73
27 103
27 105
27 108
27 118
27 206
27 237
27 260
27 300
27 305
27 314
27 322
27 366
27 379
27 383
27 400
27 430
28 77
28 104
28 116
28 118
28 131
28 148
28 250
28 281
28 313
28 323
28 331
28 333
28 393
28 407
28 416
28 426
28 452
28 482
29 35
29 64
29 73
29 97
29 106
29 133
29 145
29 153
29 228
29 287
29 305
29 306
29 311
29 402
29 409
29 426
29 477
30 33
30 36
30 89
30 124
30 182
30 190
30 211
30 220
30 231
30 250
30 329
30 378
30 389
30 411
30 442
30 453
31 32
31 59
31 77
31 89
31 111
31 124
31 125
31 195
31 203
31 205
31 284
31 316
31 338
31 346
31 372
31 384
31 427
32 36
32 62
32 74
32 170
32 171
32 257
32 297
32 300
32 312
32 327
32 331
32 340
32 348
32 366
32 388
32 400
32 410
32 438
32 460
32 478
33 41
33 46
33 113
33 139
33 153
33 176
33 178
33 198
33 218
33 236
33 247
33 260
33 274
33 300
33 330
33 336
33 369
33 373
33 428
33 451
33 467
33 494
34 37
34 77
34 98
34 104
34 116
34 228
34 265
34 303
34 306
34 367
34 383
34 437
35 96
35 116
35 204
35 205
35 235
35 297
35 439
35 442
36 71
36 99
36 124
36 125
36 131
36 201
36 209
36 224
36 245
36 264
36 298
36 361
36 368
36 383
36 470
37 46
37 62
37 63
37 71
37 164
37 176
37 177
37 197
37 240
37 362
37 390
37 446
37 448
37 452
37 488
37 492
38 46
38 52
38 85
38 139
38 151
38 172
38 176
38 181
38 200
38 248
38 250
38 255
38 312
38 322
38 343
38 353
38 357
38 416
38 433
38 459
38 470
39 54
39 69
39 78
39 162
39 163
39 200
39 225
39 251
39 266
39 279
39 284
39 325
39 350
39 356
39 364
39 436
39 456
39 474
39 488
39 496
40 54
40 62
40 65
40 86
40 115
40 120
40 128
40 129
40 145
40 165
40 174
40 225
40 233
40 254
40 263
40 304
40 329
40 336
40 338
40 351
40 366
40 378
40 403
40 417
40 462
40 493
40 495
41 51
41 84
41 129
41 150
41 231
41 234
41 258
41 313
41 318
41 337
41 350
41 384
41 398
41 441
41 471
42 66
42 67
42 114
42 132
42 158
42 220
42 267
42 305
42 393
42 398
42 436
42 441
42 451
42 475
43 64
43 104
43 109
43 123
43 142
43 151
43 171
43 175
43 179
43 198
43 242
43 245
43 255
43 266
43 268
43 273
43 275
43 301
43 353
43 419
44 130
44 145
44 146
44 179
44 194
44 232
44 256
44 262
44 289
44 293
44 332
44 353
44 391
44 402
44 446
44 449
45 108
45 190
45 241
45 296
45 300
45 303
45 324
45 332
45 333
45 342
45 363
45 369
45 373
45 428
45 465
45 496
45 498
46 48
46 92
46 106
46 126
46 137
46 195
46 248
46 249
46 306
46 394
47 51
47 54
47 64
47 74
47 95
47 98
47 105
47 120
47 150
47 173
47 204
47 217
47 223
47 390
47 395
47 431
48 68
48 164
48 217
48 219
48 243
48 294
48 313
48 322
48 346
48 389
48 400
48 411
48 438
48 480
48 494
49 80
49 93
49 114
49 140
49 154
49 164
49 172
49 223
49 249
49 299
49 308
49 403
49 423
49 429
49 431
49 435
49 436
49 468
49 484
50 51
50 136
50 141
50 143
50 146
50 168
50 220
50 235
50 323
50 336
50 388
50 390
50 488
51 94
51 154
51 170
51 195
51 232
51 262
51 270
51 281
51 303
51 415
51 454
51 456
51 457
51 464
52 78
52 79
52 108
52 177
52 192
52 202
52 239
52 319
52 353
52 372
52 375
52 393
52 437
52 465
52 470
52 481
53 148
53 160
53 161
53 165
53 182
53 192
53 261
53 288
53 398
53 413
53 444
53 459
53 499
54 61
54 135
54 166
54 194
54 207
54 260
54 374
54 394
54 400
54 406
54 423
55 60
55 74
55 77
55 79
55 130
55 170
55 198
55 266
55 282
55 301
55 324
55 365
55 408
55 457
55 463
55 496
56 100
56 110
56 129
56 146
56 154
56 195
56 205
56 218
56 228
56 262
56 293
56 295
56 299
56 335
56 341
56 366
56 407
56 422
57 72
57 78
57 137
57 161
57 170
57 172
57 222
57 224
57 240
57 252
57 363
57 372
57 416
57 442
57 498
58 61
58 65
58 87
58 150
58 206
58 214
58 241
58 249
58 302
58 308
58 394
58 430
58 491
59 149
59 167
59 182
59 206
59 222
59 277
59 308
59 323
60 120
60 171
60 189
60 275
60 281
60 283
60 303
60 366
60 392
60 403
60 415
61 121
61 158
61 171
61 238
61 242
61 252
61 256
61 265
61 275
61 332
61 375
61 393
61 415
61 441
61 490
62 151
62 163
62 234
62 255
62 257
62 331
62 332
62 355
62 357
62 360
62 383
62 399
62 400
62 430
62 469
62 489
63 84
63 102
63 147
63 162
63 200
63 202
63 224
63 229
63 339
63 395
63 398
63 424
63 456
63 458
63 462
63 469
63 475
64 131
64 171
64 173
64 197
64 213
64 338
64 351
64 352
64 370
64 420
64 435
64 454
65 69
65 82
65 103
65 139
65 145
65 179
65 216
65 237
65 238
65 247
65 268
65 282
65 329
65 342
65 369
65 406
65 410
65 436
65 442
66 137
66 165
66 174
66 198
66 282
66 327
66 410
66 451
66 455
67 69
67 103
67 116
67 120
67 230
67 233
67 238
67 246
67 260
67 347
67 353
67 430
67 443
67 445
67 448
67 468
67 489
68 121
68 144
68 300
68 320
68 362
68 369
68 394
68 409
68 444
68 463
68 473
68 489
69 98
69 110
69 152
69 259
69 293
69 301
69 330
69 405
69 426
69 482
70 137
70 148
70 163
70 179
70 232
70 265
70 269
70 273
70 334
70 348
70 378
70 420
70 431
70 442
70 452
70 453
70 473
70 479
70 484
70 486
71 89
71 101
71 132
71 220
71 260
71 267
71 333
71 357
71 393
71 412
71 450
71 457
71 462
71 482
71 485
72 151
72 165
72 197
72 208
72 318
72 362
72 365
72 392
72 394
72 400
72 425
72 466
72 481
73 87
73 115
73 155
73 260
73 285
73 298
73 322
73 352
73 390
73 437
73 441
73 493
74 90
74 145
74 154
74 177
74 185
74 210
74 243
74 248
74 269
74 332
74 334
74 377
74 387
74 424
74 448
74 462
75 94
75 119
75 135
75 150
75 165
75 300
75 311
75 331
75 365
75 375
75 427
75 435
75 448
76 80
76 99
76 131
76 138
76 174
76 183
76 203
76 204
76 227
76 250
76 311
76 332
76 352
76 353
76 371
76 384
76 395
76 451
76 452
76 461
77 126
77 133
77 190
77 204
77 231
77 255
77 301
77 348
77 380
77 399
77 417
77 439
77 443
77 445
77 484
77 497
78 142
78 168
78 187
78 238
78 267
78 271
78 305
78 314
78 370
78 383
78 459
78 465
78 481
78 499
79 110
79 146
79 151
79 186
79 220
79 317
79 328
79 330
79 348
79 365
79 370
79 396
79 403
79 427
79 448
79 449
79 461
79 493
79 495
80 110
80 171
80 173
80 179
80 201
80 285
80 348
80 355
80 359
80 366
80 433
80 448
80 457
80 478
80 479
81 170
81 279
81 284
81 368
81 381
81 410
81 411
81 414
81 437
81 452
81 471
82 115
82 145
82 177
82 201
82 271
82 282
82 317
82 320
82 329
82 334
82 362
82 368
82 392
82 400
82 406
82 409
82 418
82 422
82 426
82 475
83 88
83 99
83 149
83 179
83 183
83 238
83 262
83 271
83 313
83 350
83 370
83 381
83 385
83 476
83 485
84 121
84 137
84 155
84 169
84 232
84 233
84 240
84 271
84 303
84 313
84 355
84 381
84 386
84 389
84 403
84 472
84 498
84 499
85 87
85 133
85 175
85 223
85 238
85 252
85 257
85 262
85 275
85 279
85 300
85 317
85 321
85 369
85 387
85 484
86 87
86 118
86 131
86 143
86 146
86 199
86 241
86 295
86 308
86 341
86 356
86 371
86 373
86 383
86 401
86 427
86 454
87 100
87 128
87 130
87 140
87 191
87 203
87 229
87 260
87 348
87 350
87 445
87 447
87 472
87 495
88 91
88 94
88 119
88 164
88 190
88 214
88 252
88 269
88 274
88 286
88 316
88 317
88 356
88 404
88 414
88 420
88 434
89 133
89 141
89 142
89 143
89 167
89 219
89 221
89 270
89 301
89 359
89 381
89 405
89 423
89 424
89 458
89 463
89 474
89 487
89 491
90 106
90 155
90 181
90 183
90 202
90 216
90 218
90 250
90 254
90 262
90 282
90 361
90 447
90 449
90 465
90 473
90 478
90 492
91 97
91 142
91 187
91 201
91 204
91 215
91 267
91 307
91 342
91 392
91 458
91 491
92 108
92 129
92 132
92 146
92 173
92 175
92 184
92 224
92 247
92 285
92 310
92 327
92 334
92 396
92 421
92 483
93 100
93 142
93 143
93 149
93 173
93 214
93 233
93 283
93 308
93 317
93 338
93 450
93 480
93 499
94 99
94 104
94 114
94 136
94 147
94 218
94 240
94 241
94 289
94 309
94 313
94 346
94 384
94 391
94 394
94 410
94 447
94 462
95 117
95 159
95 191
95 247
95 249
95 291
95 307
95 370
95 388
95 414
95 421
95 422
95 426
95 438
95 452
95 478
95 491
96 139
96 149
96 176
96 184
96 198
96 227
96 229
96 260
96 312
96 321
96 347
96 398
96 449
96 466
97 101
97 130
97 189
97 190
97 223
97 226
97 228
97 232
97 245
97 323
97 344
97 382
97 384
97 420
97 424
97 463
97 464
97 477
97 491
97 492
98 108
98 147
98 179
98 208
98 232
98 237
98 325
98 328
98 345
98 373
98 375
98 386
98 496
99 103
99 163
99 172
99 189
99 191
99 273
99 292
99 332
99 333
99 386
99 417
99 421
99 498
100 157
100 185
100 208
100 225
100 231
100 257
100 264
100 274
100 282
100 285
100 320
100 345
100 404
100 435
100 469
100 477
101 113
101 114
101 122
101 146
101 153
101 161
101 168
101 216
101 231
101 301
101 303
101 327
101 363
101 366
101 380
101 392
101 425
101 433
101 435
101 456
101 483
102 103
102 137
102 152
102 194
102 201
102 243
102 269
102 282
102 321
102 350
102 352
102 374
102 399
102 467
102 495
103 122
103 153
103 204
103 208
103 231
103 235
103 248
103 253
103 283
103 288
103 305
103 341
103 384
103 425
103 443
103 456
103 487
103 497
104 106
104 108
104 109
104 139
104 174
104 218
104 231
104 243
104 244
104 364
104 393
104 441
104 451
104 456
104 469
105 107
105 169
105 190
105 207
105 237
105 259
105 266
105 316
105 353
105 401
105 405
105 423
106 118
106 120
106 151
106 209
106 211
106 288
106 296
106 329
106 405
106 444
107 109
107 118
107 136
107 168
107 208
107 209
107 214
107 268
107 271
107 279
107 318
107 386
107 414
107 421
107 429
107 443
107 472
107 474
108 155
108 193
108 235
108 248
108 269
108 288
108 308
108 324
108 332
108 334
108 363
108 374
108 438
108 451
108 459
108 468
108 474
108 486
109 147
109 155
109 165
109 210
109 222
109 241
109 300
109 318
109 333
109 381
109 424
109 446
109 483
110 111
110 227
110 328
110 409
110 413
110 465
110 469
111 155
111 166
111 176
111 325
111 330
111 405
111 413
112 141
112 162
112 220
112 283
112 290
112 296
112 298
112 328
112 339
112 396
112 406
112 412
112 419
112 428
112 493
113 132
113 172
113 181
113 193
113 203
113 244
113 304
113 322
113 326
113 365
113 407
113 430
113 457
113 494
114 135
114 163
114 167
114 193
114 217
114 264
114 283
114 298
114 341
114 346
114 353
114 415
114 426
114 456
115 159
115 194
115 238
115 279
115 337
115 343
115 383
115 389
115 396
115 414
115 424
115 433
115 463
115 476
116 123
116 172
116 191
116 213
116 227
116 251
116 289
116 312
116 329
116 376
116 460
116 480
116 493
117 136
117 158
117 172
117 193
117 248
117 256
117 287
117 309
117 320
117 386
117 416
118 149
118 150
118 170
118 180
118 187
118 192
118 219
118 232
118 238
118 251
118 357
118 414
118 482
118 495
119 180
119 210
119 218
119 219
119 268
119 270
119 271
119 329
119 441
119 445
119 460
119 487
119 488
120 164
120 202
120 228
120 252
120 277
120 283
120 325
120 341
120 360
120 368
120 444
120 493
120 496
121 157
121 183
121 216
121 219
121 228
121 243
121 308
121 309
121 352
121 357
121 373
121 393
121 409
121 412
121 431
121 449
121 450
121 464
122 124
122 127
122 149
122 161
122 177
122 179
122 203
122 238
122 285
122 299
122 344
122 345
122 346
122 350
122 393
122 442
122 460
122 495
123 124
123 151
123 167
123 171
123 208
123 253
123 271
123 306
123 314
123 340
123 343
123 394
123 414
123 418
123 432
123 450
123 465
124 125
124 156
124 179
124 181
124 201
124 204
124 241
124 281
124 323
124 359
124 365
124 404
124 444
124 471
125 137
125 231
125 232
125 268
125 295
125 356
125 359
125 369
125 380
125 412
125 439
125 470
125 472
125 484
126 140
126 192
126 194
126 195
126 206
126 211
126 250
126 300
126 320
126 351
126 352
126 366
126 369
126 404
126 417
126 458
126 470
126 471
126 485
127 133
127 157
127 165
127 200
127 211
127 217
127 223
127 233
127 253
127 257
127 286
127 287
127 290
127 295
127 301
127 326
127 333
127 342
127 353
127 371
127 376
127 378
127 388
127 406
127 409
127 474
128 162
128 192
128 213
128 216
128 240
128 241
128 243
128 251
128 321
128 346
128 351
128 356
128 360
128 379
128 406
128 415
128 457
129 142
129 177
129 238
129 294
129 337
129 340
129 419
129 464
129 484
130 179
130 192
130 217
130 223
130 257
130 284
130 340
130 380
130 381
130 443
130 473
130 474
130 480
131 143
131 282
131 285
131 302
131 330
131 362
131 373
131 390
131 403
131 413
131 465
131 474
132 143
132 172
132 176
132 181
132 247
132 312
132 340
132 360
132 372
132 378
132 403
132 440
132 448
132 485
132 495
133 174
133 287
133 302
133 374
133 427
133 434
133 472
133 496
133 497
134 138
134 145
134 159
134 191
134 216
134 231
134 236
134 261
134 299
134 301
134 305
134 396
134 398
134 425
135 150
135 198
135 213
135 387
135 421
135 472
135 481
135 484
135 490
136 144
136 165
136 180
136 206
136 236
136 293
136 321
136 337
136 378
136 386
136 395
136 399
136 468
137 141
137 193
137 215
137 273
137 289
137 332
137 357
137 432
137 434
138 165
138 199
138 247
138 275
138 308
138 466
138 493
139 146
139 160
139 206
139 245
139 295
139 331
139 343
139 377
139 422
139 425
139 495
140 187
140 188
140 225
140 238
140 243
140 247
140 282
140 324
140 337
140 385
141 151
141 205
141 211
141 287
141 390
141 438
141 478
141 496
142 210
142 214
142 238
142 284
142 327
142 369
142 390
142 426
142 444
142 450
142 479
143 166
143 181
143 217
143 246
143 267
143 323
143 336
143 339
143 342
143 362
143 381
143 387
143 450
143 472
143 474
143 490
144 164
144 205
144 211
144 245
144 271
144 280
144 286
144 301
144 355
144 357
144 414
144 455
144 456
145 168
145 181
145 185
145 193
145 200
145 232
145 243
145 258
145 275
145 277
145 293
145 304
145 327
145 343
145 372
145 436
145 447
146 173
146 174
146 217
146 238
146 264
146 326
146 336
146 343
146 364
146 387
146 417
146 418
146 419
146 425
146 472
147 156
147 157
147 163
147 172
147 179
147 245
147 256
147 281
147 284
147 349
147 374
147 375
147 444
147 460
148 154
148 173
148 179
148 220
148 234
148 263
148 287
148 306
148 355
148 423
149 181
149 210
149 221
149 276
149 340
149 379
150 153
150 195
150 240
150 258
150 310
150 311
150 317
150 337
150 390
150 394
150 431
150 487
151 166
151 197
151 230
151 256
151 265
151 313
151 316
151 322
151 333
151 364
151 402
151 453
151 485
151 496
152 163
152 179
152 180
152 189
152 220
152 231
152 237
152 419
153 164
153 171
153 253
153 271
153 296
153 299
153 314
153 330
153 363
153 368
153 410
153 412
153 417
153 431
153 448
153 480
154 225
154 253
154 256
154 316
154 322
154 350
154 380
154 385
154 438
154 487
155 174
155 176
155 241
155 245
155 278
155 279
155 280
155 313
155 339
155 342
155 359
155 383
155 416
155 424
155 469
155 479
156 168
156 219
156 225
156 242
156 389
156 406
156 434
156 482
156 487
157 223
157 362
157 401
157 414
157 418
157 436
158 159
158 173
158 184
158 227
158 247
158 276
158 296
158 328
158 332
158 362
158 373
158 421
158 430
158 435
158 452
159 182
159 336
159 381
159 414
159 469
159 474
159 489
159 495
160 182
160 201
160 222
160 249
160 271
160 277
160 281
160 290
160 317
160 328
160 335
160 348
160 446
160 458
160 467
160 495
161 271
161 272
161 273
161 322
161 337
161 375
161 382
161 431
161 435
161 449
161 476
161 488
162 180
162 213
162 214
162 240
162 269
162 272
162 275
162 301
162 370
162 388
162 405
162 427
162 480
162 487
163 271
163 283
163 305
163 327
163 365
163 422
163 444
164 171
164 181
164 182
164 190
164 192
164 297
164 305
164 308
164 309
164 317
164 337
164 356
164 367
164 412
164 428
164 473
165 197
165 223
165 249
165 329
165 341
165 346
165 365
165 397
165 402
165 442
165 453
165 485
166 170
166 177
166 267
166 311
166 367
166 370
166 425
166 446
166 450
166 471
166 475
167 217
167 290
167 324
167 334
167 354
167 392
167 418
167 419
168 169
168 201
168 207
168 209
168 252
168 301
168 354
168 357
168 375
168 450
168 493
169 177
169 189
169 241
169 292
169 325
169 335
169 350
169 359
169 360
169 379
169 392
169 413
169 415
169 458
169 466
170 180
170 254
170 277
170 279
170 307
170 340
170 350
170 358
170 377
170 380
170 404
170 461
170 464
170 465
170 499
171 174
171 182
171 187
171 209
171 224
171 298
171 355
171 387
171 388
171 463
172 185
172 193
172 197
172 207
172 223
172 233
172 261
172 284
172 395
172 403
172 455
172 461
172 463
172 478
172 479
173 177
173 185
173 186
173 202
173 209
173 220
173 232
173 244
173 295
173 338
173 340
173 356
173 400
173 407
173 417
173 429
173 439
173 442
173 493
174 200
174 229
174 259
174 263
174 350
174 375
174 392
174 446
175 192
175 210
175 250
175 291
175 300
175 313
175 334
175 378
175 442
175 491
176 195
176 204
176 242
176 254
176 258
176 277
176 288
176 349
176 355
176 368
176 383
176 398
177 184
177 196
177 198
177 208
177 213
177 311
177 432
177 439
178 195
178 206
178 226
178 245
178 302
178 304
178 306
178 312
178 322
178 348
178 399
178 429
178 487
179 197
179 199
179 231
179 289
179 293
179 387
179 392
179 415
179 419
179 436
180 207
180 215
180 253
180 309
180 334
180 341
180 351
180 360
180 376
180 392
180 435
180 442
180 455
180 458
180 477
181 212
181 243
181 270
181 281
181 301
181 306
181 374
181 411
181 434
181 449
181 479
181 489
182 209
182 217
182 272
182 301
182 326
182 343
182 354
182 357
182 359
182 361
182 382
182 387
182 476
182 483
182 486
182 494
183 211
183 249
183 254
183 304
183 310
183 312
183 346
183 374
183 427
183 432
184 190
184 196
184 202
184 223
184 261
184 270
184 278
184 325
184 338
184 349
184 353
184 380
184 398
184 412
184 436
184 438
184 482
184 498
185 190
185 191
185 199
185 208
185 228
185 231
185 255
185 279
185 291
185 314
185 371
185 414
185 431
185 471
186 211
186 222
186 234
186 241
186 257
186 273
186 283
186 289
186 310
186 356
186 374
186 439
186 446
186 463
187 190
187 204
187 224
187 248
187 331
187 346
187 364
187 369
187 376
187 378
187 384
187 411
188 189
188 288
188 305
188 310
188 373
188 399
188 408
188 410
188 421
188 433
188 444
188 453
188 479
188 490
188 498
189 193
189 208
189 265
189 294
189 319
189 341
189 345
189 404
190 234
190 343
190 356
190 392
190 413
190 428
190 436
190 474
191 224
191 238
191 280
191 292
191 326
191 329
191 414
191 430
191 431
191 444
191 445
191 487
191 494
192 238
192 288
192 299
192 310
192 320
192 377
192 402
192 419
192 470
193 207
193 210
193 351
193 358
193 402
193 431
193 478
194 200
194 220
194 244
194 272
194 275
194 284
194 299
194 323
194 351
194 353
194 363
194 368
194 387
194 393
195 214
195 244
195 307
195 373
195 376
195 380
195 415
195 491
196 209
196 252
196 269
196 294
196 302
196 433
196 452
196 456
196 458
196 495
197 240
197 245
197 267
197 274
197 294
197 325
197 332
197 358
197 380
197 433
197 448
197 465
197 473
198 238
198 240
198 255
198 330
198 425
198 448
199 217
199 225
199 277
199 327
199 341
199 347
199 364
199 380
199 402
199 460
199 467
199 478
199 480
199 489
199 491
199 494
200 281
200 282
200 283
200 289
200 292
200 370
200 384
200 436
200 472
200 474
200 476
200 487
201 204
201 222
201 242
201 318
201 326
201 425
201 442
201 463
201 484
201 488
202 230
202 236
202 320
202 324
202 360
202 402
202 410
202 440
203 207
203 319
203 347
203 383
203 392
203 413
203 421
203 457
204 205
204 233
204 241
204 252
204 258
204 327
204 331
204 380
204 449
204 468
205 230
205 267
205 279
205 283
205 309
205 330
205 343
205 351
205 366
205 391
205 410
205 463
205 468
205 485
206 224
206 228
206 274
206 281
206 286
206 306
206 311
206 317
206 412
206 422
206 496
206 497
207 237
207 274
207 283
207 320
207 339
207 353
207 370
207 419
207 482
208 213
208 243
208 268
208 292
208 295
208 302
208 316
208 364
208 381
208 425
208 427
208 479
209 223
209 289
209 328
209 344
209 382
209 383
209 387
209 444
209 459
210 238
210 240
210 246
210 249
210 261
210 333
210 342
210 361
210 371
210 402
210 433
210 489
211 215
211 241
211 244
211 258
211 291
211 323
211 329
211 343
211 350
211 361
211 375
211 394
211 414
211 449
211 457
211 477
212 237
212 303
212 364
212 375
212 407
212 422
213 216
213 220
213 228
213 318
213 332
213 348
213 357
213 390
213 459
213 470
213 478
214 234
214 266
214 295
214 299
214 308
214 324
214 349
214 359
214 383
214 422
214 479
214 481
215 306
215 311
215 335
215 373
215 388
215 399
215 421
215 487
215 491
216 224
216 227
216 249
216 274
216 296
216 320
216 375
216 387
216 389
216 460
216 470
216 473
217 219
217 240
217 269
217 311
217 334
217 336
217 458
217 488
218 244
218 269
218 283
218 313
218 323
218 407
218 462
219 233
219 243
219 281
219 294
219 306
219 346
219 364
219 398
219 429
219 431
219 445
219 457
219 465
220 227
220 232
220 248
220 262
220 288
220 341
220 361
220 412
220 485
221 296
221 348
221 355
222 240
222 246
222 279
222 306
222 322
222 346
222 368
222 383
222 431
222 436
222 463
222 489
223 229
223 398
223 402
223 413
223 444
223 471
223 499
224 247
224 256
224 260
224 303
224 345
224 378
224 396
224 443
224 456
224 457
224 466
224 471
224 486
225 233
225 235
225 236
225 275
225 378
225 382
225 393
225 469
226 250
226 265
226 294
226 330
226 360
226 367
226 388
226 403
226 451
226 463
227 236
227 247
227 256
227 313
227 323
227 464
227 498
228 283
228 296
228 322
228 335
228 341
228 343
228 407
228 417
228 419
229 264
229 284
229 326
229 330
229 370
229 381
229 386
229 432
229 434
229 471
230 240
230 251
230 267
230 268
230 286
230 290
230 303
230 333
230 352
230 365
230 471
230 495
230 497
231 233
231 267
231 287
231 289
231 295
231 305
231 323
231 340
231 353
231 370
231 373
231 385
231 386
231 397
231 400
231 467
231 474
231 488
232 241
232 285
232 303
232 314
232 411
232 417
232 442
232 453
232 485
233 235
233 260
233 370
233 398
233 430
233 480
233 482
234 246
234 266
234 334
234 351
234 362
234 373
234 419
234 423
234 478
235 271
235 286
235 292
235 357
235 359
235 376
235 377
235 443
235 444
236 250
236 263
236 269
236 270
236 320
236 328
236 368
236 372
236 440
236 480
237 246
237 277
237 279
237 304
237 307
237 314
237 317
237 436
237 456
237 467
237 483
237 499
238 248
238 259
238 264
238 285
238 311
238 319
238 326
238 346
238 359
238 382
238 402
238 447
238 461
238 473
238 480
239 298
239 451
239 453
240 310
240 316
240 319
240 340
240 382
240 399
240 479
240 480
240 491
241 254
241 269
241 301
241 325
241 444
241 474
241 479
242 261
242 270
242 283
242 290
242 310
242 329
242 399
243 249
243 261
243 273
243 319
243 338
243 357
243 361
243 442
243 459
243 463
244 250
244 279
244 302
244 345
244 357
244 417
244 460
244 464
244 485
245 265
245 273
245 302
245 317
245 357
245 384
245 400
245 402
245 461
245 475
245 478
245 499
246 281
246 334
246 336
246 391
246 414
246 419
246 424
246 475
247 271
247 280
247 302
247 331
247 357
247 371
247 385
247 409
247 454
247 495
248 320
248 336
248 349
248 357
248 375
248 379
248 390
248 408
249 261
249 290
249 311
249 326
249 360
249 374
249 375
249 390
249 405
249 463
250 269
250 274
250 279
250 331
250 334
250 347
250 362
250 385
250 391
250 399
250 435
250 439
250 455
250 485
251 265
251 282
251 290
251 297
251 307
251 336
251 394
251 423
251 468
251 496
252 260
252 288
252 320
252 394
252 398
252 407
252 432
252 436
252 439
252 454
252 470
253 270
253 280
253 311
253 326
253 335
253 351
253 356
253 367
253 377
253 385
253 464
253 466
253 482
254 299
254 304
254 330
254 352
254 412
254 418
254 438
254 470
254 478
254 487
254 490
255 263
255 300
255 324
255 345
255 365
255 370
255 376
255 398
255 434
255 457
255 462
255 483
255 487
256 280
256 291
256 293
256 313
256 332
256 335
256 354
256 378
256 414
257 304
257 386
257 451
257 452
257 454
257 459
258 354
258 371
259 337
259 343
259 349
259 385
259 388
259 400
259 468
260 277
260 286
260 291
260 314
260 315
260 318
260 372
260 406
260 426
260 463
260 466
260 493
260 495
261 372
261 437
261 455
262 268
262 270
262 315
262 322
262 329
262 334
262 344
262 415
262 435
262 455
262 461
262 463
263 265
263 280
263 285
263 286
263 290
263 303
263 310
263 373
263 381
263 424
263 431
263 474
263 483
264 285
264 286
264 303
264 322
264 336
264 345
264 351
264 355
264 360
264 435
264 476
265 280
265 287
265 302
265 304
265 308
265 443
266 323
266 380
266 412
266 418
266 428
266 446
267 296
267 319
267 327
267 353
267 441
268 283
268 333
268 352
268 374
268 385
268 430
268 474
269 288
269 292
269 339
269 395
269 410
270 274
270 317
270 318
270 321
270 333
270 383
270 412
270 414
270 436
271 273
271 351
271 369
271 389
271 414
271 418
272 301
272 367
272 373
272 430
272 434
272 440
272 467
272 470
272 478
272 499
273 314
273 333
273 346
273 357
273 390
273 403
273 439
273 452
273 466
273 493
274 313
274 321
274 335
274 363
274 368
274 376
274 394
274 415
274 444
274 447
274 451
274 473
275 312
275 327
275 329
275 342
275 348
275 377
275 391
275 411
275 413
275 416
275 432
275 456
275 457
276 371
276 407
276 436
276 449
276 450
276 464
277 278
277 303
277 329
277 349
277 350
277 361
277 376
277 392
277 423
277 437
277 445
278 301
278 305
278 325
278 336
278 386
278 422
278 457
278 470
279 290
279 324
279 329
279 356
279 371
279 395
279 415
279 426
279 486
280 286
280 340
280 353
280 385
280 391
280 426
280 429
280 445
281 330
281 344
281 370
281 401
281 445
281 467
281 471
281 497
282 293
282 301
282 322
282 328
282 366
282 400
282 404
282 438
282 499
283 298
283 333
283 367
283 375
283 390
283 422
283 433
284 285
284 295
284 319
284 371
284 376
284 388
284 394
284 402
284 427
284 493
285 333
285 344
285 400
285 433
285 445
285 461
286 289
286 301
286 335
286 351
286 366
286 382
286 434
286 435
286 459
286 485
287 339
287 344
287 345
287 348
287 359
287 371
287 413
287 438
287 486
288 299
288 319
288 371
288 372
288 381
288 406
288 409
289 297
289 350
289 391
289 401
289 434
289 491
290 303
290 388
290 409
290 428
290 472
290 475
290 487
291 312
291 364
291 383
291 389
291 398
291 401
291 410
291 411
291 422
292 333
292 382
292 392
292 423
292 448
292 453
292 460
292 487
293 299
293 310
293 349
293 370
293 388
293 402
293 467
293 499
294 312
294 339
294 381
294 429
294 435
294 456
294 460
294 482
294 485
295 306
295 336
295 355
295 364
295 392
295 400
295 416
295 433
295 443
295 464
295 470
295 480
296 322
296 355
296 364
296 375
296 379
296 380
297 337
297 343
297 346
297 360
297 363
297 423
297 434
297 445
297 474
297 495
298 301
298 347
298 397
298 418
298 460
298 470
299 320
299 335
299 347
299 375
299 441
299 451
299 472
299 480
299 487
300 303
300 353
300 401
300 421
300 454
300 456
300 459
300 489
301 336
301 359
301 413
301 414
301 424
301 463
302 331
302 348
302 351
302 356
302 372
302 374
302 390
302 410
303 353
303 365
303 374
303 375
303 400
303 417
303 419
303 458
303 466
304 314
304 338
304 387
304 400
304 446
304 472
304 493
304 499
305 362
305 388
305 390
305 453
305 477
306 311
306 316
306 337
306 429
306 470
307 327
307 408
307 425
307 464
308 310
308 311
308 349
308 377
308 430
308 434
308 443
308 474
308 493
309 324
309 354
309 389
309 448
309 498
310 341
310 347
310 461
310 469
310 479
310 481
311 342
311 395
311 405
311 448
311 488
312 327
312 361
312 400
312 418
312 442
313 321
313 360
313 364
313 374
313 453
313 458
314 346
314 378
314 383
314 407
314 446
314 459
315 316
315 343
315 360
315 393
315 400
316 330
316 388
316 403
316 470
316 472
316 490
316 495
316 497
317 321
317 397
317 404
317 406
317 414
317 451
317 462
317 476
317 490
318 319
318 325
318 352
318 355
318 428
318 459
318 489
318 490
319 335
319 374
319 382
319 386
319 406
319 437
319 438
319 450
319 478
320 359
320 380
320 393
320 394
320 398
320 404
320 406
320 453
320 462
320 473
320 487
321 328
321 372
321 378
321 387
321 388
321 412
321 433
321 448
321 460
322 379
322 404
322 421
322 438
322 447
323 329
323 357
323 376
323 383
323 407
323 411
323 424
323 465
323 480
323 491
323 499
324 353
324 356
324 361
324 365
324 406
324 414
324 440
324 446
324 447
324 449
324 482
325 361
325 367
325 421
325 469
325 472
325 482
326 377
326 395
326 403
326 414
326 423
326 433
326 440
326 461
326 474
326 479
327 336
327 341
327 360
327 367
327 382
327 410
327 413
327 442
327 445
327 465
327 466
327 471
328 329
328 428
328 436
328 465
328 493
329 395
329 431
329 464
329 468
329 469
330 335
330 340
330 374
330 375
330 388
330 471
331 343
331 344
331 369
331 439
331 442
332 344
332 383
332 416
332 435
332 437
332 456
332 458
332 466
332 468
333 391
333 421
333 422
333 427
333 462
333 463
333 473
334 350
334 384
334 446
334 489
335 342
335 385
335 484
335 499
336 343
336 389
336 390
336 428
337 339
337 384
337 417
337 429
337 439
337 453
337 494
338 361
338 371
338 402
338 414
338 420
338 422
338 438
338 447
338 497
339 341
339 398
339 419
339 466
339 470
340 362
340 382
341 414
341 426
341 462
341 466
342 435
343 357
343 383
343 384
343 423
343 428
343 443
343 497
344 388
345 372
345 406
345 422
345 442
345 469
345 472
346 368
346 381
346 417
346 486
347 388
347 419
347 431
347 436
347 438
347 464
347 498
348 361
348 385
348 399
348 420
348 432
348 442
348 489
348 494
349 425
349 475
350 356
350 416
350 420
350 489
350 490
351 479
352 359
352 363
352 368
352 393
352 412
352 415
352 444
352 465
352 481
353 369
353 386
353 395
353 408
354 365
354 387
354 398
354 401
354 421
354 446
355 362
355 390
355 441
355 446
356 363
356 372
356 429
356 430
356 459
357 392
357 406
357 413
357 422
358 380
358 489
358 492
359 371
359 432
359 453
359 488
360 401
360 407
360 454
360 486
360 488
361 370
361 371
361 398
361 421
361 427
362 373
362 374
362 387
362 448
363 372
363 398
363 416
363 418
363 472
363 491
364 388
364 402
364 413
364 421
364 454
364 480
364 490
365 392
365 420
365 472
365 485
366 398
366 415
366 421
366 490
367 458
367 459
367 463
368 376
368 377
368 448
368 474
368 483
369 398
369 433
370 383
370 389
370 393
370 435
371 389
371 401
371 444
371 450
372 405
372 417
372 431
372 467
372 486
372 489
372 499
373 418
373 444
373 491
373 499
374 400
374 407
374 423
374 425
374 443
374 449
374 468
375 436
375 473
375 488
375 489
376 417
376 420
376 452
376 464
377 448
377 481
377 484
377 498
378 393
378 402
378 418
378 463
378 468
378 477
379 390
379 431
379 438
379 477
380 397
380 408
380 412
380 475
380 495
381 389
381 400
381 406
381 470
382 399
382 409
382 413
382 416
382 419
382 422
382 428
382 448
382 466
382 481
383 425
383 470
383 476
383 495
384 410
384 420
384 421
384 440
384 462
384 494
384 498
385 485
385 490
386 403
386 404
387 432
387 459
387 466
388 391
388 411
388 414
388 415
388 423
388 435
388 445
388 448
389 409
389 428
389 497
390 391
390 425
391 443
392 399
392 446
392 457
392 463
392 466
392 477
392 480
393 418
393 422
393 495
394 471
394 472
394 495
395 460
395 464
395 465
395 488
396 412
396 428
396 445
396 458
396 473
396 479
397 402
397 414
398 425
399 438
399 487
400 424
401 464
401 479
402 425
402 484
403 419
404 437
405 406
405 417
405 458
406 407
406 421
406 432
406 434
406 488
407 438
407 456
407 482
408 411
408 435
408 473
408 478
408 489
409 431
409 445
409 455
410 415
410 436
410 445
410 466
411 416
411 432
411 441
411 463
412 418
413 441
413 442
413 465
413 491
414 416
414 428
414 446
414 499
415 420
415 434
415 460
415 461
415 498
416 432
416 438
416 441
416 469
416 471
416 482
417 434
417 476
418 432
418 456
418 477
419 463
419 495
420 443
420 489
420 493
421 458
421 463
424 454
424 497
425 444
425 446
425 452
425 465
425 495
426 448
426 464
427 442
427 447
427 462
428 469
429 441
429 446
429 448
429 472
429 476
430 461
430 466
430 497
431 442
431 464
431 497
432 456
433 499
434 435
434 447
434 472
434 473
434 476
435 457
435 483
436 451
436 481
437 446
437 488
438 452
438 468
439 471
439 488
440 444
440 458
441 442
441 466
441 484
441 486
442 454
442 469
443 453
443 467
444 450
446 453
446 496
447 457
447 461
447 470
448 473
448 484
449 473
450 451
450 456
450 469
450 480
452 466
452 472
453 489
454 469
454 497
455 460
455 489
456 474
456 489
456 499
457 468
459 483
461 477
461 479
461 489
462 481
462 485
463 477
464 493
468 470
471 473
472 477
472 479
473 476
474 482
474 485
474 499
475 488
478 484
479 480
479 492
479 498
481 488
481 492
481 495
483 487
483 496
493 498
495 499
