0 5
0 48
0 49
0 67
0 75
0 81
0 96
0 97
0 106
0 107
0 111
0 123
0 129
0 136
0 166
0 171
0 178
0 180
0 195
0 196
0 205
0 224
0 240
0 1294
1 8
1 9
1 45
1 54
1 79
1 82
1 100
1 110
1 112
1 139
1 173
1 177
1 179
1 189
1 200
1 212
1 244
1 248
1 261
1 276
2 15
2 21
2 31
2 47
2 51
2 78
2 87
2 98
2 115
2 116
2 127
2 138
2 181
2 182
2 184
2 198
2 199
2 208
2 220
2 246
2 260
2 969
2 1114
3 15
3 19
3 27
3 28
3 34
3 37
3 41
3 62
3 85
3 118
3 132
3 178
3 180
3 184
3 190
3 213
3 216
3 221
3 226
3 241
3 245
3 457
4 70
4 82
4 90
4 112
4 113
4 121
4 126
4 183
4 203
4 218
4 249
4 255
5 22
5 46
5 53
5 54
5 85
5 148
5 158
5 180
5 189
5 224
5 228
5 245
6 11
6 24
6 63
6 77
6 78
6 109
6 113
6 117
6 121
6 141
6 168
6 170
6 184
6 237
6 243
6 245
6 257
6 260
7 8
7 16
7 25
7 27
7 36
7 101
7 105
7 115
7 118
7 132
7 148
7 172
7 190
7 193
7 218
7 221
7 225
7 268
7 274
7 276
8 18
8 27
8 62
8 79
8 94
8 104
8 109
8 134
8 145
8 149
8 152
8 177
8 190
8 199
8 201
8 241
8 258
8 277
9 21
9 24
9 38
9 48
9 49
9 60
9 74
9 86
9 87
9 91
9 116
9 119
9 124
9 125
9 144
9 182
9 199
9 222
9 239
9 245
9 260
9 1212
10 24
10 27
10 36
10 46
10 47
10 81
10 85
10 86
10 87
10 92
10 128
10 148
10 150
10 156
10 182
10 186
10 187
10 189
10 191
10 196
10 198
10 211
10 237
10 241
10 243
10 245
10 249
10 267
11 16
11 18
11 20
11 34
11 45
11 47
11 95
11 99
11 104
11 108
11 133
11 152
11 156
11 168
11 189
11 203
11 211
11 224
11 238
11 242
11 262
11 278
12 40
12 66
12 80
12 82
12 101
12 112
12 139
12 187
12 210
12 218
12 220
12 222
12 227
12 231
12 239
12 258
12 259
12 271
13 17
13 61
13 85
13 87
13 93
13 102
13 109
13 136
13 169
13 228
13 229
13 273
14 19
14 37
14 40
14 63
14 73
14 75
14 78
14 80
14 114
14 121
14 131
14 140
14 143
14 154
14 155
14 202
14 207
14 219
14 264
14 277
14 278
15 22
15 52
15 72
15 82
15 98
15 144
15 175
15 199
15 215
15 218
15 227
15 230
15 327
16 17
16 22
16 26
16 30
16 42
16 45
16 52
16 62
16 68
16 132
16 140
16 143
16 173
16 193
16 203
16 205
16 208
16 231
17 53
17 65
17 80
17 113
17 129
17 134
17 162
17 186
17 188
17 189
17 205
17 224
17 228
17 235
17 258
17 260
17 270
17 278
17 896
18 26
18 36
18 37
18 40
18 48
18 73
18 88
18 146
18 175
18 181
18 193
18 198
18 212
18 213
18 215
18 258
18 262
18 272
19 27
19 91
19 105
19 122
19 126
19 131
19 162
19 171
19 199
19 204
19 216
19 227
19 264
19 268
19 270
19 273
19 278
19 1019
20 28
20 63
20 75
20 78
20 93
20 95
20 96
20 111
20 118
20 133
20 135
20 140
20 169
20 172
20 186
20 211
20 251
20 442
20 1041
20 1315
21 39
21 43
21 53
21 69
21 70
21 75
21 117
21 139
21 151
21 155
21 185
21 186
21 204
21 206
21 210
21 230
22 32
22 60
22 66
22 100
22 113
22 114
22 125
22 152
22 175
22 181
22 210
22 222
22 240
22 249
22 260
22 267
22 933
23 24
23 26
23 35
23 38
23 51
23 76
23 83
23 115
23 116
23 121
23 130
23 152
23 158
23 165
23 171
23 193
23 196
23 207
23 225
23 251
23 271
24 58
24 74
24 76
24 78
24 81
24 90
24 91
24 112
24 117
24 120
24 124
24 126
24 128
24 132
24 186
24 193
24 198
24 223
24 241
24 258
24 262
24 267
25 45
25 52
25 63
25 101
25 124
25 128
25 129
25 132
25 144
25 173
25 200
25 236
25 258
25 435
26 42
26 46
26 49
26 52
26 59
26 65
26 69
26 108
26 120
26 139
26 148
26 163
26 170
26 172
26 177
26 179
26 180
26 184
26 224
26 227
26 262
26 592
27 73
27 86
27 94
27 96
27 100
27 124
27 157
27 166
27 187
27 194
27 244
27 269
27 273
28 31
28 65
28 66
28 83
28 88
28 90
28 105
28 115
28 117
28 129
28 131
28 168
28 201
28 215
28 235
28 238
28 245
28 255
28 271
28 273
28 1065
29 31
29 43
29 52
29 62
29 70
29 101
29 136
29 177
29 178
29 179
29 183
29 186
29 199
29 201
29 209
29 227
29 239
29 240
29 241
29 262
29 264
29 274
30 31
30 47
30 67
30 70
30 102
30 171
30 186
30 191
30 192
30 218
30 227
30 231
30 239
30 243
30 267
30 269
30 785
31 47
31 83
31 91
31 107
31 119
31 124
31 145
31 146
31 155
31 187
31 195
31 210
31 224
31 271
31 1004
32 37
32 59
32 76
32 83
32 86
32 96
32 122
32 134
32 179
32 207
32 234
32 253
32 273
32 1310
33 64
33 86
33 103
33 137
33 139
33 152
33 171
33 181
33 185
33 189
33 213
33 235
33 263
34 36
34 50
34 57
34 65
34 68
34 92
34 93
34 101
34 113
34 130
34 136
34 146
34 158
34 161
34 163
34 253
34 270
35 75
35 98
35 102
35 106
35 131
35 157
35 163
35 181
35 189
35 210
35 225
35 244
35 248
35 260
35 272
36 53
36 66
36 67
36 79
36 94
36 105
36 112
36 124
36 164
36 179
36 218
36 231
36 239
36 240
36 262
36 270
36 271
36 275
36 277
36 1231
37 40
37 49
37 55
37 69
37 93
37 119
37 125
37 127
37 135
37 138
37 143
37 173
37 181
37 189
37 221
37 233
37 236
37 247
37 258
38 44
38 80
38 85
38 143
38 160
38 161
38 163
38 167
38 170
38 177
38 191
38 194
38 205
38 218
38 225
38 236
38 261
38 270
38 277
38 1336
39 47
39 55
39 78
39 94
39 95
39 116
39 131
39 132
39 153
39 155
39 157
39 175
39 182
39 193
39 203
39 223
39 238
39 261
40 43
40 48
40 51
40 63
40 82
40 90
40 120
40 125
40 128
40 131
40 141
40 148
40 149
40 150
40 154
40 185
40 196
40 210
40 216
40 239
40 265
40 271
41 66
41 96
41 125
41 132
41 138
41 139
41 145
41 158
41 192
41 204
41 216
41 250
41 257
41 273
42 77
42 96
42 109
42 187
42 197
42 198
42 205
42 213
42 226
42 267
42 272
42 344
42 665
43 47
43 62
43 68
43 84
43 89
43 98
43 107
43 113
43 189
43 193
43 195
43 215
43 230
43 239
43 248
43 270
43 276
44 84
44 85
44 89
44 109
44 113
44 140
44 157
44 162
44 164
44 192
44 230
44 236
44 241
44 245
44 271
44 1219
45 92
45 103
45 108
45 125
45 153
45 170
45 182
45 192
45 200
45 201
45 216
45 222
45 230
45 245
45 250
46 50
46 52
46 79
46 136
46 163
46 174
46 181
46 188
46 199
46 211
46 220
46 225
46 239
47 93
47 104
47 123
47 131
47 140
47 155
47 158
47 174
47 184
47 218
47 222
47 223
47 231
47 234
47 236
47 239
47 240
47 268
48 64
48 95
48 97
48 114
48 117
48 118
48 134
48 160
48 168
48 184
48 198
48 226
48 247
48 251
48 258
48 272
48 278
49 51
49 96
49 108
49 123
49 129
49 131
49 152
49 199
49 212
49 216
49 221
49 226
49 253
49 263
49 264
49 266
49 270
50 56
50 69
50 93
50 102
50 117
50 172
50 179
50 183
50 188
50 193
50 195
50 222
50 223
50 235
50 268
50 276
51 52
51 62
51 69
51 79
51 84
51 92
51 102
51 112
51 119
51 120
51 131
51 143
51 157
51 159
51 163
51 167
51 186
51 188
51 193
51 200
51 202
51 212
51 234
51 252
51 263
52 67
52 80
52 96
52 109
52 132
52 139
52 190
52 196
52 203
52 212
52 232
52 250
52 256
52 274
52 275
53 59
53 82
53 83
53 85
53 91
53 103
53 105
53 107
53 129
53 153
53 160
53 183
53 189
53 192
53 196
53 243
53 244
53 256
53 265
53 271
54 55
54 84
54 85
54 89
54 94
54 103
54 162
54 169
54 176
54 190
54 194
54 205
54 211
54 217
54 220
54 223
54 241
55 67
55 92
55 98
55 110
55 112
55 115
55 119
55 131
55 134
55 141
55 149
55 161
55 194
55 202
55 218
55 221
55 224
55 227
55 238
55 513
56 65
56 66
56 68
56 74
56 82
56 86
56 108
56 123
56 132
56 139
56 143
56 170
56 178
56 189
56 197
56 248
56 268
56 272
56 276
56 277
57 65
57 68
57 85
57 155
57 160
57 178
57 263
57 1251
58 71
58 81
58 88
58 106
58 126
58 140
58 144
58 163
58 166
58 174
58 184
58 197
58 223
58 246
58 256
58 270
59 78
59 85
59 90
59 97
59 100
59 110
59 115
59 126
59 133
59 150
59 166
59 185
59 193
59 228
59 229
59 234
59 237
59 249
59 252
59 259
59 268
60 91
60 121
60 149
60 150
60 168
60 178
60 218
60 233
60 260
60 619
60 1046
61 92
61 101
61 113
61 121
61 152
61 162
61 251
61 258
61 268
61 273
62 63
62 73
62 84
62 97
62 98
62 132
62 176
62 190
62 204
62 210
62 226
62 274
63 76
63 81
63 89
63 96
63 106
63 148
63 162
63 168
63 190
63 199
63 209
63 216
63 239
63 244
63 246
63 267
64 65
64 105
64 108
64 136
64 146
64 174
64 176
64 208
64 217
64 230
64 240
64 259
64 261
64 268
64 271
65 75
65 103
65 115
65 136
65 152
65 154
65 159
65 172
65 181
65 192
65 202
65 213
65 225
66 79
66 91
66 114
66 126
66 155
66 156
66 176
66 183
66 217
66 222
66 244
66 271
66 543
67 78
67 79
67 90
67 93
67 94
67 115
67 121
67 132
67 152
67 198
67 205
67 208
67 217
67 222
67 234
67 241
67 252
67 253
68 81
68 87
68 88
68 90
68 116
68 143
68 149
68 178
68 188
68 205
68 210
68 217
68 224
68 239
68 246
68 256
68 274
68 277
68 326
69 76
69 86
69 114
69 115
69 117
69 123
69 134
69 170
69 178
69 188
69 190
69 193
69 196
69 219
69 240
70 89
70 92
70 99
70 109
70 134
70 144
70 205
70 224
70 249
70 251
70 277
70 293
71 81
71 89
71 102
71 144
71 152
71 158
71 161
71 174
71 176
71 197
71 198
71 200
71 231
71 260
72 84
72 95
72 97
72 136
72 140
72 143
72 150
72 156
72 185
72 200
72 216
72 235
72 236
72 249
72 259
72 269
72 559
72 869
73 76
73 81
73 85
73 142
73 174
73 192
73 194
73 218
73 226
73 230
73 237
73 239
73 248
73 269
73 271
74 100
74 118
74 121
74 122
74 126
74 183
74 187
74 199
74 212
74 234
74 1039
75 76
75 82
75 85
75 103
75 107
75 111
75 144
75 167
75 174
75 188
75 200
75 217
75 250
75 259
75 270
76 80
76 84
76 125
76 130
76 184
76 189
76 195
76 197
76 231
76 1235
77 108
77 115
77 132
77 146
77 166
77 177
77 183
77 203
77 227
77 233
77 239
77 242
77 252
77 261
77 860
77 1398
78 83
78 88
78 94
78 102
78 106
78 131
78 135
78 189
78 239
78 242
78 250
78 276
79 85
79 87
79 100
79 111
79 119
79 120
79 149
79 154
79 166
79 203
79 208
79 209
79 212
79 226
79 227
79 239
79 242
79 248
79 251
79 270
80 86
80 99
80 100
80 139
80 192
80 206
80 219
80 225
80 237
80 252
80 259
80 260
80 273
80 940
81 97
81 101
81 110
81 111
81 152
81 181
81 192
81 214
81 242
81 243
81 269
81 274
82 120
82 121
82 142
82 169
82 214
82 255
83 94
83 118
83 120
83 126
83 182
83 190
83 193
83 243
83 244
83 246
83 256
83 272
83 535
84 112
84 118
84 138
84 156
84 159
84 168
84 196
84 199
84 204
84 207
84 234
84 235
84 253
84 272
85 111
85 134
85 152
85 171
85 182
85 191
85 195
85 196
85 198
85 222
85 230
85 1355
86 94
86 100
86 101
86 104
86 107
86 152
86 186
86 196
86 210
86 231
86 234
86 238
86 261
86 276
87 104
87 112
87 131
87 166
87 169
87 174
87 195
87 196
87 215
87 229
87 265
87 1208
88 129
88 135
88 147
88 155
88 170
88 176
88 199
88 203
88 219
88 232
88 246
88 276
89 90
89 95
89 111
89 112
89 119
89 128
89 139
89 140
89 163
89 172
89 183
89 185
89 200
89 201
89 204
89 211
89 220
89 223
89 246
89 1380
90 93
90 98
90 102
90 160
90 162
90 174
90 181
90 195
90 214
90 222
90 227
90 230
90 239
90 241
90 246
90 255
90 268
90 276
90 1232
91 105
91 106
91 118
91 120
91 163
91 173
91 184
91 189
91 190
91 201
91 210
91 211
91 225
91 244
91 247
91 262
91 275
91 1066
92 130
92 146
92 154
92 162
92 167
92 172
92 175
92 197
92 207
92 233
92 252
92 262
92 540
92 989
93 106
93 144
93 155
93 156
93 179
93 186
93 188
93 238
93 239
93 240
93 251
93 254
93 266
93 274
93 275
94 95
94 100
94 102
94 103
94 109
94 122
94 128
94 131
94 155
94 232
94 251
94 258
94 266
94 677
94 726
95 112
95 115
95 154
95 162
95 170
95 212
95 223
95 253
95 257
95 272
95 612
95 1076
96 116
96 164
96 171
96 172
96 177
96 191
96 197
96 221
96 225
96 256
96 276
97 131
97 168
97 181
97 202
97 205
97 209
97 215
97 224
97 231
97 236
97 238
97 256
97 277
98 104
98 117
98 130
98 134
98 137
98 157
98 172
98 174
98 199
98 214
98 226
98 244
98 267
99 103
99 106
99 108
99 121
99 125
99 133
99 137
99 174
99 189
99 197
99 202
99 228
99 246
99 259
99 271
100 113
100 148
100 155
100 174
100 187
100 204
100 205
100 233
100 235
100 243
100 259
100 1014
101 109
101 115
101 117
101 140
101 153
101 158
101 174
101 175
101 190
101 191
101 199
101 210
101 251
101 258
102 116
102 124
102 131
102 145
102 150
102 151
102 154
102 155
102 193
102 200
102 233
102 238
102 241
102 1006
103 114
103 116
103 134
103 154
103 181
103 210
103 212
103 219
103 222
103 241
103 259
103 262
103 266
103 268
103 724
104 122
104 135
104 137
104 152
104 158
104 182
104 221
104 226
104 265
104 267
104 274
105 109
105 117
105 137
105 148
105 155
105 160
105 167
105 182
105 185
105 193
105 195
105 211
105 235
105 244
105 247
105 249
105 639
106 121
106 123
106 125
106 166
106 207
106 254
106 266
106 629
106 924
106 1384
107 121
107 156
107 166
107 173
107 186
107 187
107 213
107 238
107 249
107 258
107 264
107 269
108 149
108 176
108 179
108 187
108 199
108 216
108 246
108 264
108 265
108 278
108 675
109 117
109 135
109 143
109 153
109 179
109 199
109 205
109 209
109 230
109 232
109 248
110 123
110 163
110 166
110 193
110 201
110 202
110 211
110 224
110 231
110 238
110 246
110 268
110 987
110 1131
111 121
111 123
111 129
111 135
111 173
111 183
111 236
111 245
111 253
111 254
111 255
111 265
111 275
112 120
112 143
112 149
112 156
112 161
112 163
112 173
112 184
112 224
112 235
112 242
112 243
112 244
112 249
112 254
112 260
112 268
112 273
112 609
113 135
113 143
113 163
113 203
113 211
113 227
113 252
113 256
113 257
114 125
114 133
114 142
114 146
114 155
114 158
114 167
114 186
114 187
114 204
114 224
114 246
114 267
114 274
115 128
115 149
115 158
115 181
115 186
115 194
115 201
115 240
115 271
116 117
116 137
116 138
116 145
116 149
116 155
116 161
116 171
116 172
116 185
116 220
116 221
116 233
116 234
116 248
116 278
117 134
117 159
117 160
117 164
117 171
117 185
117 193
117 200
117 216
117 225
117 234
117 258
117 259
118 119
118 151
118 153
118 164
118 173
118 175
118 189
118 195
118 206
118 216
118 223
118 230
118 235
118 245
118 256
118 257
118 404
119 141
119 150
119 151
119 170
119 200
119 218
119 245
119 251
119 252
119 270
119 1289
120 160
120 167
120 169
120 171
120 172
120 187
120 191
120 217
120 219
120 220
120 223
120 225
120 229
120 237
120 238
120 240
120 244
120 246
120 250
121 125
121 160
121 178
121 194
121 221
121 231
121 243
121 245
121 248
121 258
122 138
122 159
122 160
122 163
122 219
122 236
122 254
123 127
123 152
123 178
123 203
123 233
123 245
123 255
123 268
124 148
124 155
124 172
124 178
124 213
124 218
124 261
124 265
124 274
124 1197
125 131
125 135
125 137
125 154
125 174
125 184
125 192
125 197
125 200
125 208
125 220
125 258
125 265
125 277
125 502
125 800
125 1003
126 135
126 137
126 160
126 164
126 188
126 206
126 209
126 212
126 218
126 220
126 228
126 236
126 242
126 246
126 249
126 795
127 149
127 151
127 168
127 169
127 178
127 184
127 190
127 216
127 219
127 250
127 258
127 260
127 274
128 131
128 138
128 194
128 200
128 211
128 230
128 231
128 269
128 273
128 619
128 921
129 139
129 142
129 146
129 148
129 155
129 174
129 183
129 201
130 180
130 207
130 241
130 249
130 251
130 265
130 267
130 270
131 134
131 135
131 143
131 148
131 159
131 189
131 194
131 199
131 201
131 206
131 213
131 223
131 229
131 275
131 780
131 1146
131 1345
132 170
132 172
132 202
132 211
132 213
132 220
132 240
133 138
133 142
133 155
133 159
133 165
133 232
133 233
133 237
133 1218
134 140
134 169
134 220
134 222
134 232
134 236
134 243
134 251
134 257
134 258
134 270
134 276
135 146
135 177
135 185
135 216
135 231
135 234
135 249
135 269
135 272
135 892
136 156
136 160
136 210
136 217
136 227
136 237
136 249
136 253
136 263
136 267
136 268
136 655
137 153
137 165
137 188
137 223
137 246
137 265
137 275
138 141
138 179
138 215
138 246
138 256
138 277
139 142
139 148
139 161
139 168
139 189
139 201
139 230
139 257
139 261
139 262
139 276
139 277
140 146
140 149
140 182
140 190
140 209
140 213
140 244
140 271
141 145
141 230
141 234
141 237
141 246
141 253
141 256
141 261
141 268
141 269
141 277
141 448
142 144
142 146
142 153
142 202
142 238
142 241
142 247
142 953
143 153
143 185
143 189
143 198
143 201
143 204
143 236
143 260
144 157
144 167
144 179
144 187
144 194
144 232
144 267
145 150
145 165
145 176
145 184
145 200
145 205
145 206
145 207
145 237
145 253
145 585
145 1374
146 164
146 165
146 170
146 188
146 190
146 222
146 224
146 226
146 260
146 274
147 168
147 192
147 202
147 203
147 204
147 213
147 228
147 236
147 248
147 250
147 788
148 156
148 162
148 167
148 173
148 208
148 212
148 260
149 168
149 183
149 184
149 187
149 190
149 220
149 226
149 229
149 235
149 249
149 270
150 152
150 174
150 200
150 213
150 231
150 244
150 265
151 155
151 158
151 161
151 171
151 182
151 189
151 199
151 202
151 228
151 237
151 239
151 251
151 271
152 160
152 167
152 169
152 210
152 214
152 256
153 168
153 181
153 197
153 198
153 203
153 256
153 257
154 159
154 172
154 191
154 201
154 213
154 233
154 243
154 255
154 277
155 159
155 168
155 187
155 207
155 223
155 225
155 226
155 262
155 276
156 158
156 163
156 168
156 178
156 187
156 203
156 221
156 226
156 228
156 236
156 239
156 241
156 244
156 248
156 250
156 254
156 260
156 275
157 164
157 190
157 206
157 217
157 255
157 262
157 715
157 1155
158 173
158 186
158 191
158 226
158 235
158 249
158 258
158 271
158 352
159 176
159 206
159 237
159 259
159 263
159 265
159 273
160 167
160 212
160 214
160 230
160 235
160 242
160 248
160 255
160 273
161 170
161 173
161 187
161 188
161 195
161 200
161 204
161 206
161 214
161 228
161 251
161 270
161 445
162 168
162 171
162 199
162 201
162 216
162 223
162 249
162 250
162 254
162 259
162 261
162 272
162 273
163 165
163 187
163 197
163 206
163 210
163 218
163 248
163 251
163 1366
164 171
164 184
164 192
164 213
164 224
164 234
164 263
165 185
165 205
165 209
165 231
165 269
165 276
165 478
165 1376
166 215
166 224
166 251
166 270
167 175
167 181
167 194
167 236
167 244
167 262
167 756
168 178
168 204
168 248
168 252
168 257
168 263
168 264
168 271
169 178
169 183
169 186
169 202
169 206
169 260
169 266
169 269
169 273
169 277
169 765
169 1045
169 1248
170 178
170 184
170 202
170 220
170 221
170 226
170 231
170 240
170 241
170 242
170 251
171 181
171 191
171 216
171 223
171 226
171 229
171 251
171 257
171 270
172 187
172 192
172 254
172 267
173 191
173 195
173 206
173 234
173 240
173 268
174 182
174 209
174 228
174 230
174 242
174 266
174 272
174 275
175 180
175 209
175 230
175 231
175 236
175 252
175 624
175 1301
176 184
176 203
176 219
176 235
176 237
176 242
176 275
177 196
177 201
177 233
177 234
177 245
177 250
177 305
177 315
177 919
178 183
178 220
178 221
178 223
178 241
178 255
178 272
178 274
178 275
178 1138
179 215
179 236
179 241
179 899
180 195
180 196
180 198
180 249
180 262
180 276
181 190
181 218
181 261
181 268
181 270
182 186
182 221
182 251
182 1063
183 203
183 217
183 218
183 222
183 226
183 235
183 259
183 629
183 1140
185 215
185 217
185 219
185 220
185 231
185 255
185 265
185 270
186 187
186 188
186 202
186 214
186 233
186 245
186 258
186 276
186 402
186 789
187 218
187 220
187 255
188 194
188 202
188 220
188 250
188 254
188 277
189 203
189 204
189 218
189 219
189 224
189 230
190 200
190 208
190 209
190 245
190 265
191 199
191 200
191 220
191 222
191 230
191 249
191 278
192 199
192 205
192 218
192 237
192 252
192 261
192 265
192 276
193 200
193 206
193 207
193 208
193 219
193 224
193 245
193 1268
193 1317
194 208
194 226
194 244
194 247
194 610
194 680
195 203
195 246
195 254
195 259
195 263
195 264
195 277
195 606
196 201
196 246
196 250
196 276
197 202
197 214
197 243
197 256
197 259
197 1140
198 229
198 233
198 256
198 265
198 271
199 202
199 231
199 235
199 242
199 249
199 266
199 825
200 213
200 240
200 244
200 258
200 1207
201 202
201 217
201 218
201 252
202 206
202 234
202 246
202 250
203 230
203 235
203 268
203 270
203 272
203 460
204 216
204 229
204 245
204 249
204 259
205 224
205 247
205 255
205 263
206 233
206 245
206 257
206 276
206 277
207 210
207 220
207 252
207 259
207 262
207 271
208 215
208 219
208 232
208 243
208 278
208 704
209 223
209 224
209 237
209 239
209 242
209 258
209 261
210 225
210 240
210 246
210 250
210 253
210 259
211 222
211 234
211 245
211 248
211 263
212 214
212 215
212 219
212 220
212 250
212 253
212 254
212 270
213 220
213 235
213 278
214 228
214 250
215 239
215 251
215 257
216 219
216 220
216 231
216 242
216 246
216 255
216 270
217 230
217 232
217 241
217 248
217 275
217 277
218 244
218 246
218 260
218 732
219 242
219 251
219 263
220 223
220 234
220 244
220 246
220 249
220 266
221 234
221 277
221 337
222 225
222 255
222 273
222 278
223 229
223 235
223 237
223 244
223 253
223 258
223 260
223 263
223 276
224 241
224 270
224 275
225 242
225 252
225 257
225 271
225 273
225 275
226 233
226 264
226 730
227 229
227 231
227 233
227 247
227 253
227 258
227 905
227 1206
228 241
228 249
228 250
228 257
228 276
229 260
229 403
231 234
231 457
231 809
232 242
232 245
232 246
233 237
233 252
233 254
233 260
233 270
234 239
234 270
235 240
235 250
236 246
236 250
236 257
236 264
236 1249
237 261
237 263
237 277
237 533
238 268
238 275
238 277
238 890
239 253
239 274
240 247
240 257
240 278
240 594
241 251
241 252
241 266
241 268
241 275
241 276
241 277
241 513
241 1394
242 258
242 277
243 252
243 257
243 259
243 267
243 1223
244 253
244 272
244 275
244 853
245 261
245 272
245 1289
246 251
246 262
247 265
247 266
247 278
247 299
247 340
248 258
248 274
248 288
248 945
249 409
250 259
250 265
250 271
251 262
251 268
252 264
253 272
254 446
254 908
255 261
255 274
256 258
256 264
256 270
256 278
256 1108
257 881
258 265
258 277
259 266
259 268
259 1095
260 261
260 262
260 269
261 265
261 1172
263 268
264 270
265 269
265 278
266 1082
266 1346
267 272
267 274
267 275
267 488
269 270
270 277
270 715
271 1391
272 808
272 1341
277 914
279 316
279 334
279 359
279 375
279 398
279 421
279 425
279 434
279 457
279 472
279 473
279 485
279 498
279 507
279 516
279 540
279 547
279 550
280 314
280 329
280 335
280 348
280 359
280 367
280 372
280 389
280 402
280 406
280 414
280 419
280 435
280 463
280 465
280 472
280 489
280 492
280 513
280 525
280 534
280 549
280 553
280 882
280 1194
281 291
281 326
281 370
281 383
281 386
281 399
281 401
281 437
281 444
281 455
281 483
281 488
281 493
281 512
281 513
281 531
282 284
282 288
282 299
282 307
282 335
282 339
282 344
282 347
282 375
282 376
282 379
282 380
282 396
282 410
282 440
282 470
282 473
282 480
282 483
282 505
282 554
283 284
283 313
283 333
283 334
283 367
283 383
283 384
283 388
283 394
283 435
283 436
283 454
283 469
283 479
283 486
283 506
283 510
283 544
283 550
284 293
284 319
284 340
284 344
284 351
284 385
284 386
284 398
284 402
284 410
284 424
284 426
284 448
284 452
284 465
284 466
284 482
284 500
284 511
284 525
284 535
284 551
284 554
284 705
285 302
285 303
285 307
285 321
285 329
285 342
285 345
285 364
285 367
285 381
285 383
285 394
285 399
285 405
285 408
285 481
285 483
285 493
285 503
285 505
285 507
285 524
285 531
285 553
286 287
286 290
286 294
286 322
286 341
286 345
286 351
286 352
286 356
286 358
286 390
286 436
286 440
286 447
286 463
286 466
286 474
286 481
286 504
286 507
286 511
286 530
286 531
286 549
286 553
287 308
287 327
287 337
287 354
287 356
287 370
287 393
287 413
287 417
287 431
287 468
287 473
287 478
287 489
287 514
287 523
287 531
287 534
287 624
287 998
288 298
288 299
288 313
288 330
288 346
288 356
288 361
288 362
288 370
288 374
288 402
288 403
288 417
288 432
288 499
288 505
288 520
288 540
288 548
288 557
288 1091
289 303
289 308
289 309
289 342
289 372
289 376
289 392
289 415
289 418
289 427
289 436
289 442
289 469
289 489
289 537
289 555
289 626
290 297
290 307
290 323
290 368
290 381
290 405
290 416
290 433
290 443
290 464
290 467
290 476
290 477
290 494
290 495
290 527
290 546
291 292
291 316
291 354
291 355
291 377
291 378
291 409
291 411
291 439
291 451
291 467
291 512
291 520
291 522
292 312
292 320
292 322
292 334
292 342
292 372
292 392
292 408
292 445
292 446
292 451
292 454
292 456
292 506
292 512
292 526
292 544
293 305
293 313
293 315
293 325
293 348
293 356
293 359
293 368
293 376
293 389
293 398
293 418
293 434
293 458
293 469
293 475
293 486
293 500
293 1376
294 313
294 314
294 317
294 319
294 321
294 341
294 342
294 346
294 370
294 383
294 389
294 398
294 400
294 421
294 432
294 435
294 505
294 508
294 530
294 550
295 315
295 320
295 329
295 410
295 414
295 417
295 429
295 448
295 450
295 458
295 465
295 466
295 479
295 489
295 503
295 536
296 300
296 305
296 307
296 313
296 317
296 326
296 327
296 333
296 354
296 371
296 393
296 395
296 451
296 454
296 462
296 471
296 482
296 494
296 495
296 506
296 511
296 521
296 523
296 537
297 326
297 332
297 342
297 346
297 348
297 350
297 356
297 360
297 376
297 387
297 403
297 405
297 412
297 418
297 430
297 440
297 442
297 452
297 458
297 466
297 477
297 481
297 483
297 487
297 493
297 499
297 506
297 521
297 553
298 305
298 311
298 386
298 391
298 409
298 416
298 435
298 441
298 452
298 465
298 498
298 499
298 523
298 536
298 545
298 550
298 553
298 554
299 311
299 317
299 328
299 333
299 350
299 352
299 359
299 396
299 422
299 433
299 443
299 467
299 469
299 476
299 480
299 488
299 507
299 515
299 534
299 541
299 542
299 557
299 611
300 308
300 337
300 389
300 400
300 421
300 428
300 448
300 449
300 453
300 463
300 465
300 488
300 489
300 493
300 538
300 541
300 824
301 306
301 315
301 318
301 331
301 332
301 342
301 389
301 400
301 425
301 451
301 471
301 478
301 490
301 494
301 508
301 520
301 539
301 548
302 317
302 362
302 363
302 394
302 404
302 410
302 421
302 447
302 518
302 524
302 535
302 579
303 319
303 323
303 329
303 330
303 346
303 368
303 372
303 382
303 407
303 408
303 438
303 483
303 494
303 527
303 545
303 555
304 328
304 331
304 345
304 348
304 349
304 356
304 384
304 390
304 413
304 416
304 420
304 430
304 432
304 438
304 455
304 457
304 463
304 464
304 465
304 466
304 508
304 524
304 1002
304 1313
305 325
305 366
305 405
305 427
305 458
305 459
305 478
305 540
305 543
305 546
306 337
306 344
306 354
306 360
306 375
306 392
306 410
306 411
306 438
306 441
306 446
306 464
306 472
306 484
306 499
306 517
306 520
306 531
307 335
307 338
307 378
307 390
307 411
307 415
307 442
307 447
307 454
307 456
307 461
307 484
307 485
307 497
307 516
307 521
307 551
307 553
307 863
308 340
308 344
308 346
308 351
308 360
308 364
308 372
308 406
308 410
308 417
308 438
308 462
308 465
308 481
308 482
308 508
308 515
308 524
308 552
309 316
309 325
309 338
309 357
309 359
309 369
309 390
309 414
309 491
309 519
309 526
309 530
309 542
309 543
309 557
310 315
310 320
310 323
310 341
310 343
310 348
310 386
310 393
310 414
310 430
310 440
310 451
310 480
310 501
310 507
310 529
310 538
310 557
311 313
311 327
311 341
311 351
311 375
311 382
311 383
311 386
311 387
311 389
311 408
311 427
311 438
311 466
311 487
311 491
311 501
311 545
312 315
312 316
312 320
312 334
312 355
312 357
312 397
312 405
312 413
312 415
312 417
312 420
312 427
312 430
312 443
312 445
312 473
312 519
312 539
312 556
313 325
313 334
313 339
313 378
313 400
313 417
313 429
313 440
313 546
313 554
313 751
314 320
314 336
314 337
314 342
314 343
314 364
314 374
314 377
314 379
314 405
314 428
314 461
314 468
314 470
314 500
314 527
314 536
315 322
315 327
315 347
315 357
315 374
315 384
315 414
315 416
315 425
315 433
315 436
315 447
315 455
315 492
315 505
315 512
315 536
315 550
316 321
316 332
316 337
316 355
316 365
316 372
316 376
316 377
316 402
316 425
316 431
316 486
316 489
316 510
316 514
316 528
316 553
317 318
317 339
317 353
317 363
317 379
317 382
317 431
317 451
317 462
317 481
317 498
317 507
317 516
317 528
317 533
317 536
317 546
318 323
318 340
318 342
318 345
318 357
318 365
318 387
318 408
318 412
318 420
318 445
318 456
318 466
318 479
318 494
318 557
319 330
319 336
319 346
319 365
319 377
319 383
319 387
319 393
319 395
319 397
319 403
319 430
319 437
319 536
319 554
319 1019
320 334
320 342
320 352
320 403
320 408
320 414
320 417
320 426
320 443
320 459
320 480
320 515
320 516
320 524
320 528
320 530
320 546
320 547
321 331
321 338
321 361
321 364
321 397
321 401
321 408
321 445
321 472
321 477
321 486
321 494
321 527
321 529
321 534
321 538
321 546
322 334
322 362
322 364
322 391
322 393
322 401
322 408
322 420
322 434
322 470
322 493
322 495
322 497
322 501
322 510
322 516
322 542
322 555
323 374
323 387
323 396
323 398
323 410
323 416
323 431
323 432
323 462
323 465
323 471
323 479
324 332
324 340
324 364
324 380
324 399
324 427
324 441
324 442
324 457
324 469
324 470
324 485
324 494
324 500
324 526
324 545
325 336
325 347
325 364
325 371
325 375
325 394
325 407
325 418
325 453
325 465
325 475
325 486
325 491
325 492
325 499
325 500
325 501
325 503
325 518
325 522
325 548
326 369
326 424
326 433
326 443
326 449
326 455
326 476
326 477
326 519
326 525
326 546
327 332
327 340
327 372
327 390
327 394
327 395
327 397
327 398
327 424
327 448
327 449
327 474
327 487
327 494
327 498
327 550
328 331
328 338
328 347
328 386
328 434
328 436
328 443
328 459
328 498
328 522
328 530
328 539
328 547
328 552
329 337
329 344
329 345
329 366
329 407
329 415
329 424
329 428
329 435
329 440
329 463
329 469
329 502
329 513
330 347
330 357
330 362
330 366
330 375
330 435
330 448
330 461
330 463
330 477
330 480
330 497
330 505
330 506
330 508
330 511
330 524
330 538
331 332
331 344
331 347
331 356
331 397
331 399
331 404
331 405
331 407
331 422
331 423
331 457
331 488
331 495
331 508
331 519
332 347
332 370
332 374
332 382
332 419
332 441
332 471
332 472
332 480
332 485
332 515
332 519
332 527
332 550
332 555
332 556
333 336
333 350
333 365
333 397
333 437
333 448
333 459
333 463
333 468
333 469
333 489
333 494
333 507
333 511
333 512
333 517
333 557
334 338
334 344
334 355
334 368
334 412
334 430
334 442
334 457
334 477
334 483
334 527
334 533
334 552
334 557
335 338
335 341
335 376
335 388
335 392
335 398
335 421
335 445
335 450
335 451
335 454
335 459
335 464
335 494
335 541
335 552
336 340
336 368
336 377
336 382
336 436
336 471
336 476
336 491
336 492
336 518
336 520
336 530
337 376
337 390
337 399
337 422
337 458
337 489
337 541
337 544
338 340
338 356
338 376
338 379
338 390
338 393
338 407
338 413
338 421
338 423
338 434
338 435
338 461
338 497
338 502
338 510
338 522
338 526
338 529
338 536
338 547
339 351
339 353
339 382
339 387
339 407
339 411
339 423
339 450
339 467
339 473
339 477
339 509
339 512
339 552
340 342
340 348
340 396
340 433
340 439
340 452
340 471
340 479
340 492
340 512
340 550
340 555
340 557
341 349
341 363
341 375
341 395
341 399
341 438
341 462
341 513
341 517
341 522
341 536
341 544
342 349
342 352
342 359
342 374
342 401
342 414
342 420
342 434
342 441
342 444
342 450
342 471
342 486
342 487
342 491
342 501
342 755
343 357
343 358
343 383
343 396
343 406
343 437
343 449
343 469
343 480
343 489
343 495
343 503
343 510
343 517
343 540
343 545
343 548
344 350
344 351
344 352
344 374
344 403
344 404
344 442
344 456
344 475
344 484
344 486
344 500
344 506
344 512
344 528
344 552
345 351
345 376
345 383
345 388
345 404
345 449
345 463
345 468
345 470
345 508
345 522
345 526
345 531
345 549
345 552
345 554
345 585
346 365
346 383
346 398
346 399
346 432
346 439
346 451
346 475
346 484
346 494
346 503
346 505
346 507
346 514
346 524
346 537
346 552
346 555
346 681
346 730
347 361
347 372
347 376
347 386
347 388
347 390
347 394
347 396
347 429
347 440
347 472
347 490
347 493
347 515
347 535
347 540
348 352
348 370
348 381
348 382
348 383
348 385
348 415
348 428
348 430
348 457
348 468
348 469
348 472
348 477
348 502
348 514
348 516
348 532
348 533
348 535
348 550
349 350
349 354
349 377
349 380
349 386
349 404
349 409
349 427
349 456
349 458
349 477
349 506
349 523
349 547
349 1308
350 353
350 378
350 380
350 385
350 418
350 429
350 431
350 436
350 451
350 476
350 498
350 534
350 535
350 541
350 548
351 355
351 357
351 370
351 386
351 444
351 445
351 451
351 478
351 488
351 504
351 509
351 515
351 517
351 532
351 533
352 362
352 453
352 481
352 505
352 510
352 531
352 543
352 555
353 355
353 365
353 370
353 384
353 398
353 399
353 405
353 413
353 418
353 472
353 476
353 493
353 505
353 528
353 556
354 394
354 398
354 409
354 431
354 442
354 450
354 460
354 465
354 504
354 511
354 516
354 533
354 534
354 538
354 541
354 542
354 546
354 553
355 356
355 393
355 395
355 415
355 426
355 441
355 457
355 462
355 476
355 509
355 535
356 364
356 374
356 389
356 395
356 415
356 417
356 451
356 464
356 471
356 473
356 486
356 509
356 516
356 518
356 530
356 545
356 552
357 363
357 367
357 385
357 404
357 408
357 411
357 428
357 433
357 438
357 444
357 449
357 458
357 468
357 473
357 481
357 487
357 489
357 493
357 502
357 508
358 364
358 373
358 374
358 375
358 386
358 393
358 396
358 397
358 399
358 404
358 420
358 437
358 441
358 442
358 444
358 468
358 498
358 512
358 532
358 544
358 981
359 361
359 365
359 381
359 387
359 396
359 430
359 431
359 440
359 447
359 453
359 456
359 485
359 502
359 531
359 538
359 541
359 546
359 1261
360 420
360 437
360 477
360 503
361 368
361 394
361 395
361 421
361 426
361 438
361 456
361 481
361 482
361 486
361 503
361 506
361 510
361 514
361 516
361 523
361 529
362 367
362 379
362 387
362 427
362 440
362 453
362 483
362 514
362 516
362 526
362 544
363 366
363 384
363 385
363 388
363 410
363 458
363 512
363 527
363 528
363 535
364 374
364 377
364 381
364 417
364 418
364 424
364 432
364 439
364 462
364 487
364 494
364 515
364 521
364 523
364 527
364 1207
365 367
365 374
365 379
365 381
365 397
365 421
365 448
365 487
365 499
365 521
365 532
365 539
365 544
365 1055
366 370
366 373
366 391
366 416
366 446
366 457
366 487
366 506
366 512
366 523
366 530
366 542
366 550
366 554
367 383
367 390
367 398
367 399
367 403
367 425
367 431
367 466
367 477
367 486
367 487
367 495
367 514
367 518
367 549
367 556
368 417
368 422
368 432
368 455
368 470
368 472
368 482
368 501
368 520
368 553
369 411
369 422
369 438
369 450
369 454
369 470
369 472
369 480
369 485
369 510
369 516
369 532
369 533
369 541
370 375
370 382
370 389
370 395
370 398
370 412
370 413
370 468
370 483
370 488
370 495
370 510
370 514
370 523
371 382
371 386
371 391
371 405
371 406
371 425
371 455
371 456
371 466
371 468
371 473
371 500
371 511
371 522
371 530
371 539
371 546
371 1215
371 1353
372 379
372 383
372 417
372 425
372 430
372 458
372 502
372 527
373 392
373 394
373 397
373 399
373 433
373 434
373 442
373 449
373 471
373 503
373 508
373 522
373 539
374 445
374 453
374 482
374 493
374 879
374 1202
375 407
375 450
375 457
375 459
375 472
375 483
375 525
376 382
376 385
376 392
376 399
376 406
376 411
376 413
376 423
376 432
376 438
376 447
376 490
376 495
376 499
376 501
376 515
376 520
376 671
376 1374
377 382
377 384
377 385
377 387
377 393
377 410
377 421
377 426
377 436
377 466
377 489
377 494
377 496
377 507
377 520
377 523
377 539
377 547
378 389
378 398
378 410
378 417
378 430
378 458
378 498
378 506
378 530
379 384
379 397
379 398
379 437
379 447
379 464
379 475
379 491
379 512
380 391
380 397
380 429
380 433
380 438
380 445
380 468
380 498
380 500
380 520
380 532
380 555
381 410
381 429
381 434
381 451
381 457
381 474
381 483
381 496
381 515
381 516
381 517
381 537
381 539
381 556
382 391
382 392
382 401
382 421
382 430
382 437
382 439
382 449
382 459
382 478
382 495
382 531
382 535
382 550
382 886
383 386
383 390
383 394
383 403
383 404
383 422
383 450
383 471
383 504
383 505
383 516
383 524
383 556
384 403
384 415
384 421
384 422
384 443
384 493
384 533
384 546
384 547
384 549
385 388
385 398
385 405
385 411
385 419
385 421
385 434
385 457
385 465
385 491
385 493
385 503
385 505
385 535
385 546
386 387
386 394
386 415
386 426
386 431
386 471
386 478
386 480
386 483
386 528
386 537
386 539
386 540
386 543
386 545
387 399
387 406
387 425
387 432
387 433
387 451
387 470
387 528
387 533
387 543
387 545
387 547
388 418
388 447
388 464
388 486
388 491
388 509
388 528
388 533
388 534
388 897
388 913
389 394
389 395
389 407
389 408
389 411
389 413
389 438
389 444
389 446
389 460
389 481
389 515
390 391
390 395
390 406
390 414
390 426
390 430
390 439
390 472
390 481
390 502
390 512
390 513
390 517
390 542
391 395
391 402
391 425
391 434
391 460
391 463
391 471
391 487
391 502
391 504
391 507
391 556
392 423
392 443
392 449
392 479
392 509
392 513
392 535
392 545
392 552
392 1252
393 435
393 437
393 453
393 464
393 468
393 475
393 495
393 507
393 511
393 533
394 403
394 404
394 408
394 416
394 451
394 459
394 461
394 471
394 476
394 478
394 512
394 531
394 537
394 542
395 410
395 414
395 433
395 449
395 458
395 462
395 492
395 493
395 497
395 498
395 509
395 514
395 531
395 539
395 553
395 557
396 397
396 443
396 469
396 473
396 487
396 488
396 496
396 515
396 523
396 542
397 399
397 403
397 406
397 416
397 417
397 442
397 463
397 471
397 475
397 477
397 479
397 480
397 484
397 485
397 499
397 518
397 528
397 529
397 531
397 536
397 547
398 404
398 410
398 414
398 417
398 461
398 462
398 471
398 488
398 504
398 514
398 521
398 526
398 551
399 415
399 416
399 423
399 440
399 457
399 478
399 498
399 509
399 516
399 539
400 411
400 426
400 433
400 444
400 457
400 474
400 485
400 496
400 509
400 510
400 522
400 544
400 551
400 555
401 406
401 408
401 423
401 428
401 429
401 442
401 444
401 446
401 453
401 494
401 500
401 510
401 512
401 522
401 546
401 555
402 432
402 459
402 515
402 538
402 548
402 554
402 1396
403 413
403 457
403 470
403 482
403 493
403 496
403 497
403 499
403 501
403 503
403 515
403 520
403 533
403 540
403 550
403 552
404 415
404 426
404 481
404 496
404 536
404 1041
405 406
405 433
405 434
405 435
405 445
405 490
405 492
405 508
405 509
405 523
405 541
405 551
405 866
406 410
406 457
406 463
406 478
406 494
406 508
406 511
406 536
406 795
406 1260
407 421
407 426
407 441
407 450
407 451
407 466
407 495
407 497
407 503
407 511
407 529
407 536
407 553
407 987
408 416
408 428
408 438
408 454
408 457
408 461
408 480
408 517
408 520
408 533
408 536
408 547
408 922
409 435
409 455
409 457
409 489
409 500
409 512
409 518
409 523
409 525
409 526
409 540
410 444
410 461
410 464
410 480
410 502
410 518
410 522
410 552
410 554
411 427
411 435
411 474
411 480
411 481
411 492
411 500
411 528
411 533
411 551
412 450
412 453
412 497
412 507
412 510
412 513
412 523
412 529
412 556
413 430
413 475
413 479
413 483
413 484
413 495
413 510
413 519
413 553
413 954
414 418
414 423
414 427
414 441
414 442
414 465
414 489
414 492
414 502
414 506
414 512
414 541
415 433
415 446
415 451
415 462
415 503
415 522
415 551
416 418
416 446
416 483
416 489
416 512
416 527
417 430
417 438
417 481
417 483
417 513
417 538
418 433
418 455
418 463
418 467
418 471
418 472
418 473
418 474
418 490
418 502
418 507
418 530
418 536
419 497
419 531
420 422
420 432
420 436
420 438
420 460
420 475
420 482
420 487
420 494
420 526
420 528
420 533
420 538
420 542
420 555
420 1274
421 443
421 447
421 451
421 461
421 462
421 465
421 510
421 630
421 1094
422 423
422 431
422 437
422 461
422 484
422 507
422 519
422 555
422 1250
423 425
423 436
423 490
423 502
423 508
423 515
423 517
423 542
424 430
424 451
424 461
424 499
424 507
424 525
424 555
425 437
425 443
425 463
425 509
425 521
425 527
425 528
425 533
425 546
426 440
426 441
426 442
426 460
426 462
426 472
426 473
426 483
426 539
426 541
426 553
427 441
427 495
427 496
427 518
427 524
428 450
428 462
428 463
428 488
428 520
428 539
428 544
429 447
429 467
429 473
429 486
429 496
429 499
429 504
429 505
429 511
429 513
429 515
429 526
429 531
429 925
429 1383
430 432
430 436
430 444
430 449
430 494
430 498
430 500
430 524
430 526
430 527
430 546
431 433
431 457
431 497
431 504
431 528
431 539
432 443
432 456
432 457
432 460
432 464
432 471
432 477
432 494
432 516
432 529
432 531
432 547
432 552
433 436
433 438
433 460
433 473
433 482
433 506
433 529
433 531
433 540
433 547
434 448
434 457
434 459
434 499
434 511
434 517
434 522
434 549
435 445
435 469
435 472
435 474
435 483
435 487
435 488
435 543
435 1119
436 442
436 461
436 485
436 525
436 540
436 549
436 553
437 441
437 495
437 510
437 523
437 553
437 753
438 440
438 457
438 461
438 466
438 505
438 511
438 517
438 525
438 557
438 617
439 445
439 466
439 481
439 492
439 502
439 522
439 525
439 533
439 542
440 468
440 479
440 480
440 485
440 486
440 488
440 507
440 509
440 511
440 513
440 523
440 545
440 552
440 980
441 472
441 511
441 513
441 515
441 516
441 519
441 520
441 532
441 548
441 554
442 455
442 456
442 464
442 465
442 472
442 500
442 505
442 507
442 524
443 464
443 476
443 480
443 497
443 504
443 537
443 538
443 541
443 549
443 555
443 1396
444 478
444 497
444 504
444 520
444 539
444 541
444 954
445 513
445 522
445 538
445 540
445 556
446 458
446 459
446 509
446 535
446 553
446 557
447 452
447 454
447 459
447 468
447 474
447 518
447 523
447 550
448 486
448 504
448 528
448 529
448 531
448 542
448 1041
448 1349
449 461
449 472
449 476
449 500
449 508
449 527
449 538
449 547
450 467
450 482
450 488
450 492
450 512
450 513
450 531
450 533
450 545
451 465
451 469
451 479
451 490
451 496
451 500
451 508
451 516
451 528
451 536
452 472
452 480
452 496
452 498
452 518
452 544
452 550
452 554
452 1024
453 454
453 473
453 495
453 502
453 509
453 510
453 518
453 520
453 522
453 532
453 543
453 544
454 475
454 479
454 482
454 484
454 486
454 504
454 505
454 538
455 474
455 485
455 492
455 496
455 504
455 552
455 555
456 459
456 464
456 470
456 488
456 505
456 510
456 523
456 533
456 534
456 537
456 551
457 507
457 512
457 535
457 543
457 554
458 481
458 484
458 500
458 505
458 514
458 515
458 536
458 546
458 554
459 465
459 476
459 489
459 515
460 477
460 521
460 545
461 463
461 486
461 487
461 488
461 501
461 514
461 526
461 529
461 550
461 557
462 494
462 496
462 522
462 534
462 538
462 726
463 473
463 489
463 514
463 519
463 522
463 524
463 542
463 543
464 495
464 508
465 485
465 487
465 488
465 544
465 545
465 548
466 469
466 476
466 511
466 513
466 520
466 555
466 838
467 481
467 496
467 523
467 530
468 469
468 472
468 486
468 498
468 511
468 528
468 529
468 542
468 548
469 477
469 480
469 517
469 524
469 527
469 537
469 545
469 549
469 554
469 1351
470 472
470 485
470 530
470 549
470 716
471 491
471 494
471 516
471 523
471 553
471 555
471 1131
472 473
472 500
472 504
472 519
472 550
472 556
473 494
473 495
473 537
473 542
473 548
473 1106
474 475
474 491
474 500
474 507
474 529
474 550
474 915
475 502
475 525
475 528
475 545
475 550
476 480
476 492
476 495
476 496
476 555
476 557
477 480
477 493
477 507
477 508
477 518
477 523
477 537
478 524
478 530
478 539
478 554
478 1219
479 485
479 505
479 509
479 515
479 518
479 536
479 539
479 554
479 916
480 488
480 504
480 533
480 536
480 540
480 552
480 556
480 907
481 489
481 509
481 513
481 523
481 555
481 557
482 519
482 534
482 550
482 1237
483 487
483 496
483 521
483 534
483 539
483 540
484 496
484 499
484 500
484 505
484 514
484 553
484 629
485 494
485 502
485 532
486 487
486 488
486 520
486 541
486 550
486 930
486 1276
487 510
487 529
487 548
487 1016
487 1173
488 492
488 511
488 531
489 503
489 513
490 498
490 517
490 545
490 546
490 780
491 498
491 505
491 508
491 512
491 514
491 521
491 528
491 547
491 550
492 504
492 505
492 535
493 510
493 530
494 497
494 513
494 549
495 530
495 547
495 885
496 509
496 524
496 549
497 509
497 513
497 527
497 531
497 547
498 551
499 504
499 507
499 519
499 521
499 540
499 543
499 553
499 574
499 596
500 503
500 521
500 522
500 542
501 503
501 515
501 536
501 540
502 520
502 544
503 511
503 521
503 540
504 527
504 534
505 510
505 525
505 555
505 556
506 514
506 1280
507 514
507 542
507 547
508 533
508 534
508 535
508 756
508 1162
509 516
509 528
509 549
509 552
509 557
510 607
511 521
512 539
512 540
512 551
512 1174
513 514
513 517
513 520
513 539
514 525
514 529
514 534
515 551
515 557
516 525
516 535
516 554
516 647
516 695
517 553
518 530
519 529
519 541
519 553
519 557
520 539
521 554
522 534
522 549
523 530
523 544
523 993
524 527
524 536
524 544
524 549
524 550
525 530
525 538
525 546
525 814
526 527
526 536
526 537
526 538
526 553
526 1344
527 532
527 534
527 535
527 554
528 549
528 552
529 554
529 556
529 701
530 827
530 855
531 532
531 533
531 541
531 546
531 550
531 553
531 556
532 541
533 555
534 554
535 1201
536 549
538 1054
539 540
539 541
539 554
542 549
542 553
542 990
542 1213
544 545
544 547
544 550
545 555
548 1190
549 556
552 555
558 567
558 580
558 608
558 616
558 631
558 638
558 711
558 712
558 722
558 736
558 748
558 752
558 762
558 792
558 794
558 800
559 577
559 583
559 592
559 595
559 622
559 662
559 681
559 707
559 708
559 709
559 710
559 717
559 728
559 745
559 757
559 789
559 790
559 811
559 812
559 817
559 822
559 1015
560 576
560 584
560 613
560 614
560 615
560 624
560 633
560 639
560 672
560 681
560 703
560 709
560 714
560 725
560 726
560 750
560 781
560 810
560 824
560 826
560 1338
561 592
561 593
561 598
561 613
561 624
561 666
561 683
561 692
561 695
561 696
561 720
561 726
561 727
561 759
561 796
561 819
561 826
561 986
562 577
562 580
562 593
562 599
562 635
562 639
562 641
562 653
562 680
562 682
562 684
562 695
562 707
562 715
562 719
562 721
562 729
562 750
562 753
562 764
562 767
562 777
562 791
562 815
562 1200
563 564
563 581
563 589
563 624
563 640
563 654
563 659
563 662
563 673
563 696
563 713
563 718
563 722
563 726
563 748
563 752
563 753
563 758
563 759
563 774
563 784
563 796
563 797
563 806
564 568
564 570
564 575
564 601
564 606
564 612
564 623
564 643
564 681
564 683
564 730
564 734
564 738
564 745
564 747
564 767
564 769
564 777
564 794
564 807
565 585
565 586
565 606
565 638
565 645
565 646
565 712
565 718
565 760
565 788
565 807
565 810
565 813
565 816
565 817
565 829
566 587
566 590
566 609
566 643
566 681
566 699
566 715
566 725
566 739
566 740
566 774
566 818
566 828
567 576
567 582
567 585
567 601
567 604
567 632
567 640
567 646
567 656
567 690
567 707
567 713
567 729
567 732
567 741
567 750
567 754
567 757
567 769
567 771
567 788
567 818
567 820
567 835
568 585
568 590
568 597
568 604
568 606
568 607
568 617
568 687
568 690
568 703
568 729
568 737
568 759
568 773
568 774
568 789
568 794
568 805
569 599
569 601
569 606
569 642
569 644
569 667
569 677
569 689
569 720
569 738
569 745
569 747
569 778
569 812
569 816
569 825
570 579
570 605
570 607
570 609
570 622
570 633
570 642
570 655
570 656
570 662
570 665
570 675
570 693
570 717
570 718
570 741
570 777
570 783
570 795
570 801
570 820
570 828
570 830
570 832
570 998
571 597
571 622
571 639
571 699
571 724
571 727
571 760
571 800
571 811
571 836
571 1360
572 585
572 589
572 607
572 661
572 679
572 698
572 704
572 711
572 723
572 735
572 745
572 749
572 751
572 755
572 767
572 769
572 770
572 794
572 804
572 825
572 832
572 833
572 836
573 576
573 604
573 617
573 627
573 638
573 639
573 648
573 657
573 683
573 688
573 702
573 703
573 785
573 1211
574 582
574 584
574 597
574 604
574 611
574 630
574 657
574 663
574 669
574 674
574 712
574 713
574 720
574 732
574 746
574 759
574 811
574 812
574 835
575 584
575 596
575 622
575 653
575 655
575 696
575 700
575 719
575 735
575 736
575 749
575 751
575 766
575 772
575 777
575 930
576 594
576 619
576 622
576 629
576 632
576 635
576 664
576 684
576 713
576 725
576 759
576 771
576 775
576 786
576 802
576 804
576 817
577 581
577 582
577 605
577 641
577 645
577 654
577 669
577 673
577 687
577 689
577 715
577 723
577 748
577 749
577 781
577 786
577 804
577 832
577 835
578 580
578 582
578 584
578 631
578 639
578 652
578 661
578 676
578 698
578 701
578 727
578 777
578 810
578 825
578 1351
579 582
579 583
579 587
579 609
579 623
579 628
579 638
579 639
579 642
579 750
579 753
579 795
579 797
579 835
580 591
580 597
580 602
580 603
580 609
580 624
580 625
580 630
580 642
580 674
580 687
580 697
580 716
580 752
580 801
580 830
580 831
580 1044
581 628
581 652
581 658
581 679
581 701
581 727
581 786
581 796
581 802
581 805
581 816
582 603
582 617
582 618
582 624
582 639
582 661
582 664
582 674
582 681
582 692
582 696
582 698
582 700
582 710
582 738
582 742
582 766
582 769
582 782
582 795
582 806
582 823
582 1243
583 658
583 674
583 676
583 693
583 703
583 714
583 723
583 729
583 736
583 750
583 754
583 756
583 762
583 788
583 815
584 621
584 632
584 649
584 669
584 691
584 706
584 719
584 720
584 729
584 754
584 763
584 766
584 788
584 791
584 792
584 798
584 817
584 856
584 1186
585 589
585 625
585 626
585 645
585 652
585 659
585 669
585 716
585 733
585 750
585 755
585 758
585 769
585 776
585 800
585 831
585 835
586 590
586 605
586 616
586 654
586 694
586 695
586 701
586 704
586 709
586 717
586 730
586 731
586 739
586 742
586 743
586 759
586 768
586 788
587 608
587 616
587 624
587 642
587 643
587 659
587 673
587 702
587 749
587 753
587 760
587 769
587 780
587 794
587 796
587 815
587 821
587 832
587 835
587 1016
588 600
588 605
588 608
588 610
588 636
588 641
588 657
588 664
588 672
588 682
588 695
588 708
588 725
588 726
588 756
588 796
588 801
588 803
588 824
589 622
589 629
589 663
589 667
589 686
589 700
589 713
589 714
589 728
589 733
589 735
589 741
589 762
589 806
589 810
589 835
590 610
590 611
590 622
590 625
590 632
590 646
590 689
590 698
590 709
590 726
590 751
590 760
590 766
590 805
590 822
590 827
590 1100
591 601
591 642
591 646
591 648
591 664
591 676
591 696
591 719
591 738
591 752
591 758
591 763
591 764
591 765
591 774
591 783
591 790
591 796
591 797
591 804
591 819
591 822
592 599
592 610
592 615
592 621
592 644
592 647
592 648
592 655
592 693
592 697
592 707
592 708
592 718
592 744
592 755
592 771
592 810
592 823
593 599
593 611
593 615
593 618
593 620
593 637
593 638
593 663
593 665
593 667
593 689
593 716
593 717
593 749
593 763
593 764
593 789
593 818
593 824
593 827
594 597
594 604
594 623
594 627
594 631
594 661
594 668
594 698
594 751
594 775
594 781
594 821
594 822
594 836
595 607
595 635
595 642
595 663
595 665
595 707
595 720
595 731
595 732
596 606
596 610
596 633
596 662
596 683
596 688
596 692
596 711
596 753
596 755
596 772
596 791
596 799
596 800
596 803
596 808
596 822
597 663
597 669
597 691
597 748
597 751
597 753
597 788
597 803
597 808
597 815
597 817
598 601
598 613
598 614
598 628
598 649
598 671
598 682
598 684
598 687
598 751
598 757
598 764
598 796
598 801
598 808
598 809
598 811
598 826
598 830
599 619
599 629
599 644
599 649
599 676
599 677
599 687
599 696
599 701
599 710
599 712
599 741
599 752
599 798
599 799
599 821
599 823
600 604
600 627
600 662
600 669
600 676
600 680
600 681
600 707
600 708
600 718
600 719
600 725
600 730
600 734
600 738
600 748
600 758
600 759
600 764
600 769
600 777
600 800
600 803
600 823
600 1242
601 602
601 614
601 630
601 674
601 678
601 681
601 684
601 699
601 705
601 737
601 740
601 759
601 797
601 805
601 835
602 626
602 630
602 635
602 636
602 654
602 668
602 686
602 697
602 715
602 717
602 723
602 729
602 737
602 745
602 746
602 759
602 778
602 793
602 811
602 820
602 829
602 836
602 968
603 617
603 658
603 660
603 663
603 669
603 684
603 696
603 710
603 712
603 715
603 723
603 730
603 742
603 753
603 763
603 773
603 792
603 799
604 611
604 612
604 614
604 626
604 668
604 678
604 683
604 700
604 711
604 712
604 724
604 726
604 734
604 740
604 771
604 808
604 814
604 818
605 616
605 618
605 619
605 620
605 630
605 644
605 654
605 657
605 679
605 719
605 730
605 746
605 754
605 756
605 776
605 815
605 819
605 834
606 632
606 645
606 666
606 700
606 708
606 715
606 756
606 767
606 768
606 788
606 821
606 822
606 830
607 626
607 635
607 636
607 643
607 657
607 687
607 690
607 692
607 698
607 705
607 707
607 714
607 716
607 720
607 741
607 776
607 777
607 791
607 793
607 811
607 814
607 824
607 825
608 613
608 619
608 629
608 636
608 665
608 669
608 676
608 679
608 680
608 683
608 687
608 723
608 753
608 762
608 763
608 771
608 779
608 807
608 813
608 823
608 825
608 834
608 840
609 625
609 682
609 701
609 704
609 713
609 722
609 742
609 760
609 766
609 798
609 813
609 817
609 824
609 834
609 1232
610 619
610 628
610 636
610 649
610 653
610 678
610 693
610 708
610 716
610 731
610 733
610 740
610 744
610 746
610 765
610 794
610 823
611 632
611 674
611 694
611 696
611 716
611 722
611 744
611 756
611 775
611 816
611 826
611 830
612 630
612 631
612 661
612 665
612 676
612 707
612 723
612 736
612 744
612 745
612 777
612 781
612 797
613 620
613 623
613 626
613 642
613 662
613 678
613 686
613 689
613 692
613 708
613 720
613 729
613 737
613 746
613 751
613 761
613 765
613 772
613 789
613 828
614 625
614 633
614 661
614 686
614 726
614 770
614 773
614 791
614 793
614 798
614 835
615 626
615 636
615 652
615 656
615 658
615 694
615 701
615 708
615 726
615 728
615 738
615 740
615 760
615 765
615 778
615 816
615 817
615 819
615 825
615 833
616 652
616 660
616 669
616 673
616 693
616 697
616 733
616 739
616 745
616 760
616 788
616 802
616 810
616 830
616 832
617 621
617 624
617 625
617 628
617 659
617 674
617 690
617 714
617 726
617 727
617 746
617 752
617 759
617 779
617 790
617 794
617 795
617 803
618 623
618 630
618 635
618 685
618 698
618 702
618 713
618 717
618 746
618 748
618 759
618 795
618 809
618 822
618 823
618 828
618 829
618 1139
619 622
619 632
619 641
619 661
619 669
619 695
619 704
619 714
619 719
619 755
619 769
619 815
619 826
619 869
620 637
620 648
620 651
620 660
620 673
620 674
620 689
620 714
620 719
620 728
620 761
620 762
620 775
620 778
620 779
620 789
620 793
620 797
620 810
620 816
620 835
620 1118
621 655
621 660
621 695
621 720
621 733
621 737
621 750
621 752
621 788
621 1307
622 636
622 649
622 657
622 670
622 673
622 674
622 713
622 714
622 715
622 716
622 724
622 733
622 736
622 753
622 758
622 766
622 775
622 801
622 807
622 814
622 823
623 632
623 646
623 654
623 682
623 726
623 737
623 748
623 763
623 764
623 771
623 830
624 631
624 633
624 641
624 661
624 678
624 679
624 680
624 721
624 724
624 764
624 770
624 786
624 798
624 813
624 814
624 835
624 836
625 635
625 640
625 646
625 661
625 662
625 664
625 679
625 690
625 726
625 740
625 741
625 742
625 765
625 801
625 823
626 658
626 670
626 683
626 724
626 762
626 773
626 782
626 834
626 1100
627 628
627 632
627 633
627 635
627 648
627 651
627 692
627 702
627 713
627 742
627 744
627 752
627 769
627 780
627 812
627 824
627 1378
628 634
628 638
628 643
628 659
628 667
628 687
628 718
628 723
628 770
628 778
628 787
628 788
628 803
628 824
628 825
628 826
629 664
629 683
629 686
629 692
629 704
629 709
629 716
629 753
629 765
629 788
629 794
629 810
630 652
630 715
630 748
630 751
630 763
630 771
630 775
630 782
630 789
630 815
630 818
631 632
631 633
631 638
631 641
631 649
631 696
631 707
631 719
631 721
631 731
631 748
631 756
631 763
631 769
631 771
631 777
631 779
631 784
631 802
631 803
631 811
632 641
632 654
632 695
632 698
632 704
632 707
632 743
632 757
632 759
632 762
632 772
632 811
632 812
632 814
632 827
632 1396
633 640
633 661
633 670
633 698
633 709
633 711
633 715
633 718
633 755
633 777
633 778
633 790
633 794
633 799
633 803
633 808
633 810
633 814
633 819
633 821
633 831
633 834
634 637
634 658
634 666
634 677
634 684
634 690
634 708
634 718
634 755
634 780
634 788
634 795
634 797
634 798
634 805
634 1189
635 652
635 681
635 682
635 686
635 687
635 689
635 697
635 759
635 765
635 776
635 790
635 823
635 1216
636 647
636 651
636 671
636 675
636 679
636 685
636 693
636 705
636 713
636 784
636 801
636 999
637 639
637 677
637 687
637 699
637 711
637 717
637 734
637 741
637 753
637 758
637 768
637 793
637 797
637 803
637 807
637 808
637 832
638 673
638 686
638 689
638 695
638 705
638 711
638 737
638 744
638 749
638 755
638 758
638 761
638 777
638 782
638 786
638 788
638 809
638 814
638 826
639 673
639 674
639 693
639 735
639 737
639 793
639 799
639 804
639 809
639 810
639 820
639 822
639 827
640 659
640 665
640 682
640 692
640 703
640 710
640 714
640 717
640 728
640 742
640 748
640 773
640 788
640 802
640 818
640 833
640 835
640 1320
641 643
641 650
641 653
641 659
641 683
641 685
641 695
641 708
641 717
641 734
641 735
641 775
641 797
641 804
641 809
641 810
641 820
641 827
642 648
642 664
642 669
642 682
642 696
642 698
642 738
642 739
642 751
642 756
642 760
642 762
642 764
642 779
642 780
642 783
642 793
642 795
642 829
643 648
643 666
643 705
643 707
643 725
643 746
643 760
643 774
643 786
643 797
643 799
643 805
643 817
643 822
643 842
644 696
644 709
644 715
644 731
644 737
644 745
644 752
644 774
644 786
644 801
644 807
644 808
644 812
644 822
644 823
645 696
645 721
645 752
645 762
645 772
645 779
645 803
645 807
646 655
646 671
646 672
646 682
646 729
646 783
646 786
646 816
646 827
646 829
647 653
647 726
647 735
647 739
647 742
647 745
647 746
647 759
647 760
647 767
647 769
647 778
648 649
648 663
648 710
648 713
648 716
648 729
648 739
648 741
648 764
648 772
648 780
648 801
649 697
649 722
649 724
649 738
649 760
649 792
649 793
649 799
649 807
649 1228
650 651
650 655
650 661
650 672
650 694
650 696
650 711
650 725
650 738
650 741
650 750
650 805
650 827
650 836
651 660
651 675
651 685
651 725
651 732
651 738
651 767
651 769
651 783
651 811
651 836
652 672
652 673
652 700
652 712
652 729
652 766
652 770
652 773
652 814
652 825
652 826
653 666
653 690
653 754
653 778
653 783
653 785
653 787
653 808
653 809
654 655
654 688
654 702
654 703
654 707
654 727
654 734
654 784
654 813
654 817
654 829
655 658
655 663
655 690
655 697
655 727
655 732
655 744
655 769
655 770
655 784
655 796
655 799
655 815
655 827
655 834
656 658
656 666
656 673
656 695
656 705
656 711
656 717
656 733
656 744
656 761
656 771
656 787
656 789
656 792
656 830
656 834
657 665
657 684
657 697
657 720
657 727
657 734
657 743
657 764
657 776
657 779
657 782
657 787
657 789
657 804
657 805
657 807
658 659
658 670
658 703
658 712
658 721
658 725
658 752
658 776
658 778
658 785
658 798
658 809
659 661
659 666
659 693
659 709
659 722
659 728
659 731
659 746
659 782
659 921
659 1349
660 677
660 682
660 699
660 711
660 742
660 751
660 753
660 764
660 773
660 786
660 808
660 817
661 685
661 690
661 710
661 717
661 736
661 750
661 756
661 757
661 762
661 775
661 778
661 785
661 795
661 799
661 817
661 820
661 828
662 668
662 683
662 687
662 696
662 697
662 709
662 753
662 764
662 770
662 775
662 784
662 799
662 808
662 820
662 821
662 824
663 676
663 686
663 687
663 710
663 713
663 746
663 794
663 825
663 832
663 1333
664 672
664 689
664 697
664 711
664 712
664 726
664 730
664 738
664 741
664 751
664 772
664 775
664 785
664 802
664 831
665 686
665 712
665 724
665 727
665 733
665 755
665 770
665 777
665 794
665 796
665 799
665 803
665 822
665 824
665 828
665 834
665 1267
666 669
666 671
666 702
666 728
666 808
666 809
666 813
666 818
666 834
667 678
667 701
667 718
667 727
667 735
667 740
667 743
667 776
667 796
667 798
667 814
667 818
667 823
667 827
668 669
668 689
668 696
668 713
668 724
668 725
668 748
668 754
668 767
668 817
669 675
669 677
669 692
669 701
669 735
669 818
669 828
669 836
670 676
670 683
670 724
670 765
670 772
670 776
670 804
670 1116
671 698
671 704
671 705
671 735
671 738
671 746
671 775
671 813
671 829
671 1018
672 679
672 705
672 752
672 790
672 804
672 811
672 834
673 692
673 726
673 732
673 757
673 762
673 802
673 809
673 829
674 680
674 682
674 684
674 688
674 735
674 736
674 740
674 741
674 774
674 812
674 823
674 833
675 689
675 690
675 697
675 703
675 709
675 719
675 766
675 779
675 787
676 677
676 696
676 719
676 725
676 749
676 773
676 774
676 788
676 790
676 797
676 818
676 822
676 1286
677 688
677 694
677 700
677 703
677 713
677 722
677 724
677 741
677 752
677 761
677 766
677 776
677 784
678 705
678 719
678 730
678 750
678 762
678 832
679 681
679 703
679 754
679 811
679 812
679 823
679 835
680 699
680 710
680 712
680 716
680 729
680 743
680 758
680 770
680 775
680 785
680 791
680 793
680 796
680 797
681 691
681 694
681 696
681 716
681 723
681 734
681 735
681 737
681 739
681 740
681 751
681 760
681 783
681 797
681 800
681 803
682 694
682 696
682 698
682 717
682 726
682 733
682 769
682 775
682 781
682 800
682 818
682 823
682 825
682 833
683 699
683 718
683 722
683 766
683 780
683 782
683 798
683 808
683 836
684 711
684 712
684 761
684 778
684 781
684 786
684 897
685 686
685 690
685 696
685 715
685 719
685 724
685 748
685 751
685 753
685 769
685 800
685 806
685 816
686 703
686 705
686 707
686 715
686 716
686 724
686 725
686 753
686 757
686 764
686 772
686 785
686 788
686 792
686 822
687 698
687 701
687 715
687 716
687 724
687 734
687 741
687 742
687 743
687 785
687 802
687 809
687 813
688 715
688 716
688 745
688 763
688 774
688 784
688 798
688 804
688 812
689 695
689 718
689 724
689 735
689 738
689 740
689 741
689 742
689 744
689 753
689 759
689 777
689 810
689 825
689 831
689 1237
690 694
690 702
690 713
690 714
690 723
690 744
690 746
690 747
690 755
690 828
691 727
691 750
691 807
691 829
692 703
692 704
692 713
692 717
692 746
692 749
692 752
692 753
692 761
692 770
692 771
692 791
693 702
693 708
693 716
693 725
693 736
693 738
693 739
693 747
693 755
693 772
693 782
693 821
693 823
693 828
693 829
694 701
694 716
694 723
694 763
694 772
694 773
694 774
694 776
694 780
695 709
695 717
695 743
695 744
695 752
695 758
695 762
695 765
695 766
695 773
695 784
695 792
695 804
695 824
695 826
695 829
696 708
696 719
696 732
696 734
696 741
696 749
696 778
696 790
696 792
696 816
696 820
696 830
697 699
697 707
697 709
697 723
697 738
697 743
697 753
697 762
697 786
697 787
697 801
697 803
697 817
697 818
697 821
697 827
698 717
698 720
698 729
698 731
698 741
698 757
698 768
698 786
698 816
698 832
698 833
699 706
699 721
699 749
699 761
699 766
699 781
699 782
699 788
699 815
699 820
700 704
700 733
700 738
700 751
700 758
700 829
701 711
701 740
701 750
701 756
701 784
701 786
701 815
701 819
702 717
702 721
702 734
702 740
702 767
702 768
702 772
702 793
702 797
702 807
702 814
703 709
703 713
703 716
703 734
703 750
703 764
703 793
703 804
703 817
703 825
703 918
703 1052
704 706
704 733
704 774
704 779
704 787
704 802
704 806
704 835
704 1100
705 714
705 740
705 743
705 766
705 768
705 800
705 810
705 813
706 714
706 728
706 735
706 751
706 783
706 796
706 800
706 811
706 812
706 814
706 830
707 719
707 720
707 729
707 776
707 777
707 778
707 803
707 830
707 834
708 732
708 734
708 750
708 754
708 769
708 788
708 811
709 711
709 735
709 755
709 757
709 802
709 804
709 807
709 813
709 819
709 1069
710 715
710 732
710 744
710 753
710 761
710 770
710 784
710 811
710 834
710 835
711 713
711 715
711 730
711 732
711 748
711 749
711 759
711 768
711 770
711 783
711 803
711 817
711 825
711 834
712 753
712 760
712 770
713 747
713 760
713 778
713 831
714 723
714 724
714 725
714 751
714 760
714 768
714 785
714 792
714 797
714 808
714 817
714 819
714 826
714 832
714 1369
715 728
715 729
715 752
715 781
716 728
716 731
716 745
716 751
716 752
716 757
716 775
716 793
716 810
716 817
716 833
717 718
717 727
717 736
717 738
717 743
717 746
717 753
717 763
717 795
717 798
717 800
717 810
717 818
717 819
718 731
718 764
718 767
718 770
718 819
719 723
719 738
719 747
719 754
719 763
719 772
719 777
719 781
719 786
719 787
719 793
719 802
719 816
719 818
719 825
719 1389
720 735
720 736
720 749
720 790
720 791
720 792
720 808
720 813
720 826
720 828
721 756
721 760
721 778
721 779
721 781
721 790
721 799
721 822
721 833
722 740
722 742
722 745
722 757
722 758
722 765
722 766
722 786
722 792
722 801
722 808
722 818
723 753
723 759
723 764
723 780
723 813
723 823
723 835
724 738
724 741
724 753
724 766
724 794
724 797
724 812
724 819
724 825
724 1057
725 766
725 768
725 800
725 804
725 814
726 728
726 760
726 767
726 770
726 772
726 778
726 779
726 788
726 796
726 823
726 832
726 1243
727 745
727 771
727 780
727 804
727 817
727 820
727 825
727 831
728 736
728 766
728 774
728 787
728 798
728 819
728 833
729 772
729 779
729 795
729 801
729 832
729 1251
730 735
730 753
730 760
730 763
730 802
730 813
730 820
730 821
730 823
730 825
730 829
731 752
731 756
731 809
731 836
732 749
732 755
732 757
732 758
732 785
732 809
732 813
732 822
732 828
733 741
733 772
733 779
733 788
733 789
733 795
733 806
733 815
733 827
733 828
733 835
734 735
734 749
734 760
734 762
734 766
734 774
734 785
734 834
735 741
735 764
735 778
735 793
735 810
735 831
735 834
736 748
736 767
736 780
736 790
736 805
736 815
736 818
736 821
736 830
737 776
737 789
737 790
737 803
737 818
737 830
738 751
738 773
738 774
738 802
738 1243
739 762
739 782
739 800
739 827
739 905
739 1085
740 747
740 766
740 767
740 770
740 784
740 786
740 810
740 823
740 831
740 832
741 746
741 749
741 753
741 768
741 783
741 799
741 805
741 828
741 835
742 760
742 776
742 789
742 796
742 811
742 831
742 836
743 747
743 767
743 783
743 791
743 806
743 822
743 824
743 835
744 780
744 787
744 806
744 821
745 758
745 786
745 797
745 805
745 817
746 763
746 765
746 774
746 776
746 779
746 791
746 807
746 814
746 821
746 1372
747 774
747 776
747 811
748 768
748 777
748 803
748 836
748 1393
749 752
749 767
749 770
749 804
749 805
749 823
749 825
750 753
750 756
750 757
750 768
750 771
750 781
750 787
750 794
750 835
751 761
751 809
751 819
751 836
751 1312
752 754
752 757
752 821
753 754
753 756
753 779
753 782
753 797
753 807
753 836
754 767
754 784
756 760
756 763
756 781
756 790
756 820
757 781
757 785
757 809
757 813
757 820
757 829
757 833
758 767
758 815
758 835
759 764
759 768
759 776
759 796
760 763
760 781
760 798
760 806
760 819
760 829
761 771
761 809
761 828
762 781
762 783
762 792
762 796
762 832
762 1168
763 774
763 790
763 792
763 794
763 799
763 802
764 776
764 780
764 789
764 791
764 792
764 799
764 807
764 815
765 769
765 771
765 778
765 785
765 806
765 810
765 822
765 826
765 834
766 787
766 807
766 817
766 829
766 835
767 792
767 794
767 795
767 801
767 826
768 784
768 788
768 789
768 801
768 808
768 819
768 831
768 1230
769 816
769 1300
770 775
770 781
770 793
770 799
770 813
770 816
771 772
772 785
772 790
772 815
772 829
773 777
773 778
773 788
773 790
773 797
773 809
774 778
774 814
775 779
775 781
775 791
775 796
775 833
775 1069
776 780
776 785
776 807
776 811
776 814
776 828
776 1182
777 790
777 793
777 799
777 823
778 788
778 799
778 822
778 834
779 818
780 815
780 1009
781 800
781 802
781 1003
782 785
782 823
782 827
782 831
782 834
783 787
783 789
783 803
783 815
784 786
784 799
784 808
784 813
784 836
785 793
785 803
785 810
785 826
786 794
786 797
786 817
786 824
786 836
787 797
787 803
787 816
788 797
788 798
788 802
788 803
788 819
788 823
788 827
789 791
789 792
789 802
789 808
789 830
790 798
790 799
790 802
790 825
791 798
791 802
791 815
791 1229
792 815
792 816
792 824
792 830
792 847
793 800
793 817
793 827
794 803
794 809
794 1366
795 810
795 836
796 835
796 1089
796 1300
797 818
797 836
798 809
798 816
798 1180
799 816
799 834
800 829
801 814
801 834
803 816
803 818
804 805
805 812
805 819
805 825
806 816
806 824
806 832
807 820
807 829
807 1151
808 813
808 833
809 830
810 814
810 828
811 821
811 825
812 820
812 825
812 832
813 828
813 833
813 1327
814 815
814 836
814 1107
814 1180
815 817
815 1330
816 826
817 836
820 825
820 983
821 824
821 1115
822 823
822 834
825 1392
826 1237
828 830
828 835
829 833
830 833
831 832
836 994
837 851
837 856
837 862
837 877
837 893
837 914
837 927
837 931
837 941
837 948
837 970
837 991
837 992
837 1038
837 1045
837 1048
837 1050
837 1066
837 1069
837 1072
837 1103
837 1114
838 841
838 857
838 864
838 869
838 871
838 909
838 956
838 963
838 967
838 974
838 978
838 981
838 998
838 1025
838 1034
838 1055
838 1056
838 1065
838 1070
838 1080
838 1093
838 1095
838 1099
838 1106
839 852
839 868
839 871
839 914
839 942
839 949
839 950
839 958
839 963
839 969
839 978
839 987
839 1001
839 1004
839 1017
839 1041
839 1046
839 1057
839 1063
839 1072
839 1081
840 875
840 904
840 961
840 969
840 977
840 979
840 1027
840 1032
840 1040
840 1048
840 1081
840 1084
841 847
841 853
841 857
841 873
841 907
841 926
841 931
841 959
841 969
841 984
841 995
841 1023
841 1048
841 1057
841 1090
841 1094
842 843
842 873
842 882
842 896
842 902
842 912
842 934
842 935
842 936
842 961
842 978
842 981
842 988
842 1047
842 1068
842 1085
842 1099
842 1100
842 1106
842 1110
842 1114
842 1115
843 847
843 853
843 889
843 903
843 930
843 937
843 938
843 955
843 957
843 962
843 965
843 981
843 996
843 1031
843 1055
843 1061
843 1070
843 1076
843 1090
843 1105
843 1111
843 1210
844 845
844 849
844 858
844 863
844 869
844 909
844 914
844 922
844 924
844 953
844 958
844 969
844 1006
844 1010
844 1020
844 1021
844 1037
844 1047
844 1058
844 1062
844 1073
844 1088
844 1090
845 887
845 904
845 910
845 930
845 936
845 959
845 973
845 990
845 1013
845 1018
845 1025
845 1035
845 1043
845 1045
845 1069
845 1094
845 1095
845 1102
846 847
846 857
846 862
846 863
846 900
846 915
846 932
846 939
846 954
846 955
846 966
846 974
846 984
846 998
846 1007
846 1053
846 1062
846 1064
846 1071
846 1076
846 1101
846 1113
847 849
847 873
847 923
847 938
847 954
847 955
847 956
847 970
847 986
847 991
847 996
847 1030
847 1042
847 1056
847 1072
847 1115
848 849
848 856
848 875
848 895
848 914
848 921
848 924
848 935
848 937
848 943
848 959
848 965
848 989
848 1004
848 1007
848 1034
848 1035
848 1037
848 1065
848 1079
848 1089
848 1094
848 1101
848 1108
849 864
849 877
849 890
849 898
849 914
849 917
849 918
849 926
849 927
849 975
849 1017
849 1056
849 1064
849 1082
849 1085
849 1104
849 1113
849 1177
850 865
850 871
850 880
850 907
850 908
850 927
850 942
850 957
850 969
850 975
850 1030
850 1049
850 1073
850 1074
850 1109
850 1111
850 1127
851 852
851 869
851 876
851 889
851 893
851 908
851 911
851 955
851 1019
851 1042
851 1044
851 1045
851 1062
851 1066
851 1085
851 1086
851 1091
851 1115
852 853
852 854
852 858
852 863
852 872
852 874
852 887
852 888
852 889
852 915
852 937
852 979
852 989
852 992
852 997
852 998
852 1005
852 1047
852 1059
852 1061
852 1087
852 1107
852 1114
853 856
853 887
853 930
853 931
853 947
853 999
853 1028
853 1031
853 1065
853 1066
853 1067
853 1096
853 1104
854 859
854 880
854 887
854 890
854 891
854 893
854 911
854 923
854 961
854 988
854 995
854 996
854 997
854 1002
854 1003
854 1022
854 1034
854 1040
854 1042
854 1043
854 1057
854 1083
854 1086
854 1110
855 882
855 889
855 913
855 929
855 937
855 948
855 963
855 967
855 975
855 998
855 1003
855 1023
855 1031
855 1054
855 1059
855 1065
855 1075
855 1094
855 1107
855 1112
856 858
856 870
856 885
856 892
856 900
856 914
856 920
856 937
856 957
856 958
856 959
856 961
856 972
856 983
856 991
856 999
856 1001
856 1011
856 1015
856 1018
856 1027
856 1032
856 1033
856 1062
856 1078
856 1081
856 1082
856 1083
857 862
857 868
857 873
857 879
857 912
857 929
857 934
857 961
857 997
857 1007
857 1010
857 1026
857 1028
857 1050
857 1057
857 1079
857 1103
857 1146
858 873
858 877
858 885
858 917
858 921
858 943
858 1011
858 1013
858 1020
858 1023
858 1071
858 1082
858 1085
858 1088
858 1089
858 1090
858 1091
858 1113
859 861
859 887
859 909
859 918
859 943
859 952
859 969
859 980
859 988
859 993
859 998
859 1005
859 1015
859 1030
859 1083
859 1091
860 875
860 892
860 906
860 918
860 944
860 957
860 967
860 975
860 979
860 987
860 999
860 1007
860 1030
860 1043
860 1067
860 1089
860 1091
860 1111
860 1115
861 862
861 895
861 900
861 903
861 910
861 915
861 937
861 955
861 979
861 984
861 1000
861 1011
861 1023
861 1029
861 1041
861 1051
861 1054
861 1096
861 1114
862 863
862 866
862 874
862 882
862 888
862 892
862 914
862 926
862 931
862 932
862 945
862 946
862 955
862 959
862 965
862 966
862 971
862 973
862 983
862 987
862 989
862 1001
862 1014
862 1025
862 1034
862 1036
862 1041
862 1054
862 1067
862 1078
862 1087
862 1108
863 877
863 893
863 894
863 915
863 923
863 929
863 937
863 944
863 946
863 950
863 963
863 996
863 1005
863 1012
863 1059
863 1068
863 1075
863 1079
863 1087
863 1088
863 1099
863 1101
863 1103
863 1104
863 1107
864 882
864 887
864 905
864 923
864 931
864 932
864 965
864 966
864 1016
864 1020
864 1031
864 1044
864 1111
865 874
865 876
865 889
865 903
865 913
865 921
865 925
865 948
865 953
865 965
865 972
865 979
865 992
865 1003
865 1029
865 1038
865 1075
865 1082
865 1085
866 880
866 881
866 885
866 892
866 901
866 902
866 930
866 932
866 950
866 956
866 958
866 961
866 1009
866 1018
866 1020
866 1066
866 1073
866 1077
866 1089
866 1108
867 872
867 880
867 889
867 895
867 922
867 946
867 983
867 1008
867 1089
867 1097
867 1112
868 873
868 901
868 917
868 968
868 971
868 984
868 1000
868 1011
868 1027
868 1037
868 1049
868 1074
868 1075
868 1108
868 1109
869 897
869 910
869 938
869 998
869 1003
869 1024
869 1035
869 1075
869 1089
869 1110
869 1115
870 885
870 898
870 900
870 902
870 904
870 909
870 912
870 946
870 950
870 983
870 1007
870 1020
870 1034
870 1051
870 1066
870 1068
870 1078
870 1085
870 1086
870 1107
870 1115
871 909
871 917
871 941
871 978
871 991
871 1001
871 1025
871 1060
871 1094
872 904
872 959
872 974
872 1029
872 1044
872 1047
872 1049
872 1058
872 1061
872 1068
872 1083
872 1109
873 894
873 901
873 931
873 936
873 950
873 961
873 967
873 981
873 985
873 994
873 1001
873 1002
873 1004
873 1029
873 1032
873 1044
873 1049
873 1058
873 1059
873 1065
873 1069
873 1077
873 1082
873 1104
874 876
874 877
874 892
874 940
874 943
874 957
874 992
874 999
874 1008
874 1013
874 1058
874 1073
874 1075
874 1084
874 1088
874 1097
874 1099
875 879
875 891
875 906
875 923
875 928
875 934
875 936
875 952
875 960
875 1013
875 1015
875 1026
875 1053
875 1102
875 1104
875 1109
876 884
876 898
876 920
876 921
876 926
876 928
876 964
876 1016
876 1029
876 1084
876 1089
876 1094
876 1099
876 1103
876 1106
876 1108
877 882
877 893
877 903
877 915
877 916
877 920
877 924
877 931
877 934
877 947
877 967
877 972
877 982
877 991
877 1002
877 1042
877 1055
877 1074
877 1077
877 1081
877 1099
878 881
878 903
878 921
878 940
878 946
878 969
878 987
878 997
878 1025
878 1034
878 1044
878 1045
878 1062
878 1080
878 1101
878 1106
878 1111
879 884
879 902
879 908
879 960
879 964
879 983
879 1005
879 1016
879 1023
879 1032
879 1041
879 1055
879 1064
879 1071
879 1074
879 1082
879 1093
880 884
880 892
880 898
880 899
880 905
880 913
880 927
880 929
880 932
880 935
880 945
880 970
880 972
880 976
880 1005
880 1008
880 1012
880 1032
880 1044
880 1051
880 1053
880 1069
880 1073
880 1078
880 1086
880 1094
881 898
881 899
881 913
881 915
881 927
881 958
881 962
881 965
881 966
881 978
881 1008
881 1030
881 1066
881 1082
881 1088
881 1096
881 1111
882 892
882 937
882 949
882 957
882 958
882 976
882 995
882 1006
882 1020
882 1025
882 1034
882 1076
882 1104
882 1107
882 1112
883 894
883 906
883 914
883 928
883 978
883 981
883 1005
883 1008
883 1027
883 1033
883 1050
883 1052
883 1077
883 1087
883 1097
884 894
884 915
884 923
884 935
884 948
884 964
884 970
884 979
884 988
884 1010
884 1023
884 1063
884 1067
884 1071
884 1094
884 1095
884 1100
884 1110
885 888
885 901
885 929
885 973
885 987
885 1021
885 1031
885 1076
885 1079
885 1080
885 1091
885 1103
886 913
886 917
886 924
886 936
886 943
886 1006
886 1021
886 1037
886 1052
886 1053
886 1058
886 1080
886 1082
886 1091
886 1092
886 1106
886 1108
887 895
887 906
887 918
887 947
887 958
887 973
887 974
887 999
887 1003
887 1011
887 1019
887 1025
887 1040
887 1050
887 1063
887 1078
887 1088
887 1097
887 1102
888 899
888 903
888 918
888 950
888 960
888 991
888 1018
888 1019
888 1028
888 1040
888 1048
888 1052
888 1071
888 1101
888 1108
888 1111
889 894
889 914
889 924
889 952
889 958
889 959
889 973
889 1003
889 1021
889 1025
889 1050
889 1054
889 1062
889 1079
889 1085
889 1098
889 1100
889 1107
890 916
890 933
890 942
890 955
890 965
890 975
890 978
890 1006
890 1060
890 1085
890 1091
891 924
891 927
891 929
891 930
891 948
891 962
891 977
891 985
891 986
891 1053
891 1056
891 1059
891 1077
891 1091
892 895
892 919
892 926
892 928
892 951
892 966
892 978
892 1005
892 1009
892 1017
892 1030
892 1033
892 1034
892 1037
892 1066
892 1078
892 1085
892 1095
892 1114
892 1330
892 1335
893 922
893 937
893 939
893 944
893 958
893 971
893 986
893 1004
893 1005
893 1018
893 1022
893 1035
893 1054
893 1093
893 1112
894 941
894 954
894 971
894 999
894 1004
894 1035
894 1048
894 1065
894 1091
894 1092
894 1097
894 1103
894 1111
895 904
895 909
895 916
895 927
895 959
895 976
895 1016
895 1020
895 1025
895 1053
895 1069
895 1072
895 1080
895 1081
896 949
896 957
896 969
896 1004
896 1023
896 1025
896 1026
896 1062
896 1075
896 1077
896 1108
896 1111
897 908
897 911
897 946
897 959
897 972
897 1005
897 1045
897 1086
897 1095
897 1391
898 913
898 915
898 918
898 934
898 970
898 1001
898 1002
898 1004
898 1012
898 1016
898 1018
898 1040
898 1046
898 1057
898 1073
898 1075
898 1096
898 1270
899 909
899 914
899 921
899 954
899 956
899 959
899 981
899 985
899 1002
899 1005
899 1008
899 1020
899 1030
899 1039
899 1040
899 1050
899 1053
899 1063
899 1070
899 1085
899 1110
899 1112
899 1113
899 1310
900 927
900 928
900 936
900 952
900 955
900 983
900 996
900 1001
900 1015
900 1060
900 1088
900 1099
901 911
901 936
901 943
901 956
901 980
901 1009
901 1013
901 1040
901 1067
901 1077
901 1115
902 919
902 920
902 939
902 949
902 980
902 983
902 1012
902 1021
902 1046
902 1064
902 1078
902 1083
902 1104
903 921
903 935
903 941
903 959
903 962
903 971
903 984
903 990
903 995
903 1003
903 1042
903 1055
903 1069
903 1376
904 929
904 934
904 945
904 955
904 990
904 1020
904 1028
904 1035
904 1068
904 1086
904 1111
905 909
905 914
905 920
905 924
905 974
905 984
905 1008
905 1023
905 1034
905 1049
905 1050
905 1065
905 1066
905 1076
905 1086
905 1088
906 920
906 937
906 953
906 959
906 961
906 970
906 998
906 1034
906 1049
906 1057
906 1068
906 1113
907 909
907 934
907 955
907 958
907 962
907 969
907 973
907 985
907 993
907 1003
907 1024
907 1027
907 1031
907 1049
907 1062
907 1086
907 1093
907 1094
907 1107
908 925
908 935
908 937
908 946
908 975
908 976
908 995
908 1003
908 1015
908 1027
908 1042
908 1068
908 1086
908 1090
908 1092
908 1106
908 1109
908 1110
909 922
909 933
909 943
909 946
909 990
909 1003
909 1010
909 1023
909 1052
909 1054
909 1061
909 1067
909 1073
909 1101
910 912
910 964
910 1002
910 1017
910 1041
910 1085
910 1090
910 1091
910 1103
911 918
911 920
911 927
911 930
911 995
911 1009
911 1019
911 1030
911 1041
911 1051
911 1053
911 1056
911 1062
911 1071
911 1075
911 1102
911 1106
912 919
912 948
912 950
912 961
912 964
912 982
912 983
912 985
912 1056
912 1059
912 1060
912 1074
912 1081
912 1090
912 1102
912 1107
913 917
913 950
913 988
913 1003
913 1011
913 1019
913 1020
913 1042
913 1075
913 1095
914 915
914 959
914 988
914 998
914 1009
914 1019
914 1035
914 1060
914 1068
914 1078
914 1092
914 1101
914 1105
915 921
915 943
915 958
915 968
915 976
915 1003
915 1019
915 1038
915 1064
915 1091
916 937
916 944
916 945
916 946
916 947
916 958
916 969
916 979
916 980
916 1020
916 1021
916 1034
916 1039
916 1042
916 1074
916 1088
917 937
917 944
917 951
917 981
917 982
917 989
917 990
917 994
917 1009
917 1016
917 1021
917 1039
917 1043
917 1047
917 1061
917 1068
917 1098
917 1101
918 923
918 935
918 945
918 972
918 995
918 996
918 1034
918 1063
918 1098
918 1115
919 958
919 962
919 973
919 981
919 1032
919 1040
919 1076
919 1091
919 1097
919 1102
920 940
920 955
920 959
920 962
920 966
920 1017
920 1026
920 1039
920 1048
920 1049
920 1069
920 1096
920 1105
920 1113
921 924
921 935
921 939
921 942
921 947
921 965
921 971
921 977
921 986
921 995
921 1031
921 1040
921 1045
921 1055
921 1063
921 1074
921 1085
921 1087
921 1115
921 1295
922 926
922 927
922 930
922 971
922 973
922 975
922 981
922 989
922 990
922 994
922 999
922 1004
922 1012
922 1016
922 1044
922 1051
922 1057
922 1082
922 1094
922 1097
922 1099
922 1366
923 927
923 935
923 943
923 944
923 958
923 990
923 998
923 1010
923 1016
923 1036
923 1040
923 1079
923 1092
923 1103
923 1107
923 1113
924 929
924 955
924 965
924 975
924 978
924 981
924 990
924 995
924 996
924 1010
924 1037
924 1064
924 1065
924 1113
925 932
925 940
925 951
925 954
925 955
925 956
925 961
925 965
925 966
925 989
925 1000
925 1095
925 1098
925 1114
926 929
926 933
926 942
926 952
926 978
926 979
926 992
926 1002
926 1004
926 1020
926 1025
926 1033
926 1040
926 1044
926 1077
927 942
927 943
927 944
927 980
927 989
927 992
927 1032
927 1060
927 1064
927 1080
927 1087
927 1095
927 1100
927 1113
928 929
928 935
928 963
928 984
928 1001
928 1017
928 1019
928 1066
928 1075
928 1086
928 1087
928 1090
929 958
929 966
929 968
929 972
929 983
929 987
929 1007
929 1032
929 1081
929 1088
929 1101
930 936
930 940
930 957
930 978
930 995
930 1000
930 1025
930 1090
930 1320
931 987
931 996
931 1009
931 1026
931 1068
931 1115
931 1118
931 1396
932 934
932 943
932 947
932 950
932 994
932 1015
932 1036
932 1104
932 1105
932 1109
933 955
933 964
933 969
933 981
933 1021
933 1034
933 1060
933 1062
933 1063
933 1066
933 1072
933 1086
933 1088
933 1092
933 1104
933 1111
933 1113
934 943
934 958
934 959
934 983
934 995
934 996
934 1005
934 1009
934 1010
934 1022
934 1053
934 1072
934 1075
934 1082
934 1084
934 1111
935 979
935 980
935 986
935 994
935 1003
935 1014
935 1042
935 1051
935 1052
935 1057
935 1073
935 1095
936 942
936 947
936 975
936 990
936 1015
936 1028
936 1046
936 1087
936 1090
936 1091
936 1098
936 1105
936 1187
937 957
937 963
937 979
937 987
937 1046
937 1055
937 1062
937 1085
937 1101
937 1109
937 1110
938 955
938 980
938 990
938 995
938 1003
938 1054
938 1055
938 1061
938 1072
938 1077
938 1078
938 1083
938 1090
938 1097
938 1098
938 1105
939 973
939 981
939 982
939 996
939 1005
939 1011
939 1020
939 1023
939 1039
939 1057
939 1068
939 1069
939 1097
940 944
940 997
940 1004
940 1008
940 1043
940 1044
940 1083
940 1099
940 1112
941 945
941 953
941 966
941 969
941 982
941 988
941 999
941 1000
941 1001
941 1003
941 1004
941 1043
941 1072
941 1107
942 950
942 983
942 1008
942 1009
942 1012
942 1038
942 1072
942 1087
943 959
943 970
943 972
943 982
943 986
943 1012
943 1024
943 1026
943 1031
943 1044
943 1045
943 1074
943 1080
943 1089
943 1097
943 1105
943 1107
944 947
944 967
944 968
944 997
944 1012
944 1044
944 1047
944 1055
944 1065
944 1073
944 1076
944 1087
944 1104
945 953
945 965
945 970
945 1039
945 1049
945 1056
945 1093
945 1094
945 1104
945 1380
946 966
946 967
946 983
946 988
946 991
946 1003
946 1009
946 1016
946 1020
946 1030
946 1038
946 1043
946 1061
946 1071
946 1072
946 1087
946 1100
947 948
947 949
947 951
947 953
947 979
947 1061
947 1095
947 1160
948 960
948 969
948 970
948 985
948 1025
948 1027
948 1029
948 1033
948 1039
948 1075
948 1093
948 1109
949 953
949 954
949 962
949 971
949 979
949 993
949 1023
949 1037
949 1059
950 955
950 956
950 957
950 983
950 985
950 994
950 995
950 1060
950 1073
950 1093
950 1102
951 981
951 991
951 1016
951 1018
951 1035
951 1041
951 1067
951 1069
951 1072
951 1098
951 1101
951 1106
951 1107
951 1113
952 954
952 965
952 973
952 976
952 986
952 996
952 1031
952 1041
952 1058
952 1064
952 1065
952 1090
952 1094
952 1105
952 1122
953 970
953 984
953 1019
953 1028
953 1084
954 966
954 973
954 981
954 1021
954 1044
954 1081
954 1092
955 969
955 971
955 977
955 996
955 1002
955 1006
955 1010
955 1032
955 1043
955 1049
955 1065
955 1070
955 1073
956 961
956 993
956 995
956 1001
956 1017
956 1022
956 1027
956 1080
956 1100
956 1109
957 965
957 995
957 1026
957 1027
957 1056
957 1059
958 964
958 966
958 989
958 993
958 1005
958 1006
958 1007
958 1012
958 1024
958 1067
959 975
959 1003
959 1040
959 1055
959 1061
959 1063
959 1084
959 1087
959 1110
960 972
960 981
960 1004
960 1015
960 1029
960 1055
960 1066
960 1086
960 1088
961 970
961 982
961 998
961 999
961 1011
961 1014
961 1028
961 1059
961 1067
961 1082
961 1084
961 1085
961 1103
962 981
962 998
962 1036
962 1037
962 1045
962 1092
962 1100
962 1105
963 972
963 994
963 1009
963 1011
963 1018
963 1032
963 1046
963 1052
963 1083
963 1100
963 1109
964 998
964 1005
964 1008
964 1009
964 1014
964 1038
964 1051
964 1058
964 1073
964 1079
964 1109
965 982
965 987
965 990
965 1004
965 1006
965 1010
965 1036
965 1041
965 1049
965 1051
965 1061
965 1088
966 979
966 986
966 994
966 1013
966 1019
966 1029
966 1078
966 1082
966 1084
966 1092
966 1102
966 1108
967 977
967 981
967 983
967 989
967 993
967 995
967 1012
967 1063
967 1096
967 1109
968 973
968 981
968 994
968 1015
968 1045
968 1054
968 1072
968 1088
968 1097
968 1107
968 1115
969 998
969 1053
969 1075
969 1076
969 1078
969 1081
969 1088
969 1097
969 1103
969 1104
970 987
970 1000
970 1014
970 1024
970 1047
970 1085
970 1110
971 978
971 988
971 999
971 1017
971 1021
971 1025
971 1033
971 1047
971 1050
971 1056
971 1068
971 1076
971 1085
971 1093
971 1097
971 1101
971 1106
972 988
972 990
972 1024
972 1044
972 1046
972 1074
972 1085
972 1095
972 1177
973 981
973 988
973 990
973 1000
973 1003
973 1021
973 1031
973 1041
973 1069
973 1073
973 1083
973 1101
973 1109
973 1110
974 975
974 979
974 993
974 1009
974 1012
974 1019
974 1020
974 1040
974 1095
974 1096
974 1107
974 1114
975 989
975 1034
975 1080
975 1083
975 1092
975 1105
976 981
976 989
976 1003
976 1010
976 1024
976 1031
976 1041
976 1052
976 1077
976 1090
976 1113
977 980
977 989
977 1009
977 1023
977 1042
977 1051
977 1056
977 1113
978 1004
978 1012
978 1019
978 1033
978 1038
978 1040
978 1045
978 1047
978 1051
978 1054
978 1062
978 1068
978 1076
978 1079
978 1083
978 1095
978 1098
978 1106
978 1292
979 1034
979 1060
979 1065
979 1067
979 1077
979 1087
979 1088
979 1095
979 1096
979 1098
979 1101
979 1131
979 1317
980 1013
980 1104
980 1107
980 1108
980 1112
980 1130
981 986
981 1028
981 1034
981 1069
981 1073
981 1085
981 1111
982 990
982 1013
982 1020
982 1041
982 1046
982 1053
982 1060
982 1079
983 997
983 1007
983 1009
983 1015
983 1016
983 1019
983 1050
983 1102
983 1106
984 1006
984 1008
984 1015
984 1032
984 1041
984 1069
984 1078
984 1085
984 1111
984 1113
985 1016
985 1019
985 1020
985 1052
985 1069
985 1093
985 1106
986 1006
986 1007
986 1018
986 1034
986 1035
986 1036
986 1040
986 1057
986 1068
986 1071
987 990
987 1018
987 1023
987 1035
987 1097
988 1035
988 1047
988 1053
988 1075
988 1088
988 1091
989 997
989 1005
989 1022
989 1031
989 1040
989 1043
989 1059
989 1070
989 1104
989 1112
990 1000
990 1005
990 1026
990 1038
990 1041
990 1056
990 1063
990 1071
990 1084
990 1115
991 1022
991 1043
991 1069
991 1082
991 1103
992 996
992 998
992 1035
992 1083
992 1091
992 1113
993 996
993 1008
993 1021
993 1023
993 1025
993 1079
993 1098
993 1107
994 1001
994 1085
994 1095
995 1016
995 1030
995 1072
995 1096
995 1112
996 1003
996 1046
996 1056
996 1068
996 1092
996 1106
997 1011
997 1037
997 1083
997 1087
998 1000
998 1008
998 1016
998 1039
998 1041
998 1057
998 1112
999 1019
999 1022
999 1048
999 1060
999 1069
999 1089
999 1107
1000 1011
1000 1014
1000 1020
1000 1026
1000 1045
1000 1053
1000 1054
1000 1060
1000 1062
1000 1064
1000 1067
1000 1069
1000 1101
1001 1007
1001 1045
1001 1062
1001 1093
1001 1097
1001 1100
1002 1005
1002 1007
1002 1038
1002 1040
1002 1061
1002 1068
1003 1011
1003 1012
1003 1036
1003 1060
1003 1062
1003 1093
1003 1112
1003 1115
1004 1027
1004 1038
1004 1042
1004 1046
1004 1087
1004 1088
1005 1012
1005 1055
1005 1072
1005 1296
1006 1021
1006 1023
1006 1032
1006 1046
1006 1047
1006 1049
1006 1059
1006 1090
1006 1096
1006 1102
1007 1013
1007 1020
1007 1024
1007 1044
1007 1050
1007 1053
1007 1054
1007 1087
1008 1016
1008 1017
1008 1059
1008 1069
1008 1096
1009 1015
1009 1045
1009 1050
1009 1083
1010 1032
1010 1051
1010 1056
1010 1061
1010 1074
1010 1079
1010 1112
1011 1015
1011 1018
1011 1019
1011 1023
1011 1080
1011 1101
1011 1102
1011 1105
1011 1107
1011 1109
1012 1022
1012 1051
1012 1061
1012 1068
1012 1085
1012 1097
1012 1112
1013 1024
1013 1025
1013 1026
1013 1035
1013 1051
1013 1053
1013 1099
1013 1105
1014 1021
1014 1030
1014 1039
1014 1053
1014 1057
1014 1071
1014 1078
1014 1101
1014 1108
1015 1022
1015 1030
1015 1032
1015 1075
1015 1114
1016 1019
1016 1022
1016 1030
1016 1031
1016 1041
1016 1050
1016 1066
1016 1094
1016 1103
1016 1107
1016 1110
1016 1113
1017 1020
1017 1043
1017 1044
1017 1062
1017 1086
1017 1097
1017 1111
1018 1019
1018 1022
1018 1023
1018 1032
1018 1046
1018 1081
1018 1082
1018 1104
1018 1105
1019 1030
1019 1071
1019 1078
1019 1108
1019 1115
1020 1039
1020 1049
1020 1052
1020 1074
1020 1078
1020 1086
1020 1102
1020 1275
1021 1054
1021 1056
1021 1068
1021 1076
1021 1081
1021 1087
1022 1043
1022 1062
1022 1069
1022 1088
1022 1107
1022 1109
1023 1061
1023 1082
1023 1159
1024 1030
1024 1040
1024 1064
1024 1070
1024 1102
1024 1114
1025 1026
1025 1029
1025 1075
1025 1087
1025 1097
1025 1107
1025 1111
1025 1112
1025 1115
1026 1031
1026 1087
1026 1091
1026 1095
1026 1102
1027 1040
1027 1061
1027 1109
1028 1040
1028 1043
1028 1061
1028 1065
1028 1067
1028 1091
1028 1092
1028 1096
1028 1102
1028 1108
1028 1110
1028 1111
1028 1112
1029 1034
1029 1041
1029 1050
1029 1075
1029 1077
1029 1098
1030 1080
1030 1087
1030 1089
1030 1092
1030 1106
1031 1033
1031 1037
1031 1038
1031 1043
1031 1046
1031 1051
1031 1071
1031 1094
1031 1105
1031 1107
1031 1111
1032 1038
1032 1079
1032 1108
1032 1114
1033 1045
1033 1063
1033 1072
1033 1088
1033 1105
1034 1040
1034 1049
1034 1071
1034 1097
1034 1098
1034 1108
1034 1368
1035 1046
1035 1053
1035 1068
1035 1079
1035 1083
1036 1042
1036 1057
1036 1060
1036 1094
1036 1105
1036 1107
1036 1115
1037 1045
1037 1052
1037 1064
1037 1072
1037 1092
1037 1098
1038 1060
1038 1066
1038 1084
1038 1089
1038 1099
1039 1091
1039 1111
1040 1052
1040 1060
1040 1084
1040 1102
1041 1070
1041 1071
1041 1090
1041 1102
1041 1107
1041 1113
1041 1115
1042 1048
1042 1071
1042 1073
1042 1092
1042 1105
1042 1108
1043 1047
1043 1058
1043 1077
1043 1087
1043 1094
1043 1095
1044 1059
1044 1065
1044 1074
1044 1084
1044 1087
1044 1101
1044 1102
1044 1112
1045 1081
1045 1083
1045 1088
1045 1109
1045 1112
1046 1066
1046 1068
1046 1071
1046 1075
1046 1086
1046 1107
1047 1074
1047 1109
1048 1068
1048 1080
1048 1126
1049 1108
1050 1056
1050 1064
1050 1080
1050 1082
1050 1086
1051 1065
1051 1090
1051 1115
1052 1073
1052 1075
1053 1066
1053 1070
1053 1072
1053 1073
1053 1078
1053 1090
1053 1094
1053 1109
1054 1067
1054 1114
1054 1298
1055 1067
1055 1070
1055 1078
1055 1087
1055 1110
1056 1084
1056 1105
1056 1115
1057 1064
1057 1082
1058 1074
1058 1096
1058 1109
1059 1063
1059 1074
1059 1081
1059 1093
1059 1099
1060 1070
1060 1074
1060 1075
1060 1081
1060 1110
1061 1070
1061 1096
1062 1065
1062 1073
1062 1086
1062 1095
1062 1374
1063 1092
1064 1065
1064 1074
1064 1078
1064 1080
1064 1082
1064 1109
1065 1092
1065 1098
1065 1100
1066 1071
1066 1073
1066 1091
1066 1107
1067 1081
1068 1088
1068 1089
1068 1096
1068 1107
1068 1108
1068 1111
1069 1079
1069 1098
1069 1100
1070 1073
1070 1077
1070 1080
1070 1105
1070 1107
1072 1095
1072 1101
1072 1111
1073 1113
1075 1076
1075 1079
1075 1094
1076 1087
1077 1079
1077 1085
1077 1092
1077 1096
1077 1098
1078 1083
1078 1089
1078 1090
1078 1107
1079 1080
1079 1082
1079 1100
1079 1107
1080 1083
1080 1104
1081 1092
1081 1110
1081 1114
1082 1087
1082 1089
1082 1090
1082 1102
1083 1096
1083 1110
1084 1085
1084 1089
1084 1091
1084 1095
1084 1099
1084 1106
1084 1109
1084 1114
1085 1086
1085 1098
1085 1101
1086 1108
1086 1110
1087 1092
1087 1103
1087 1106
1087 1113
1088 1274
1088 1281
1090 1113
1092 1106
1092 1107
1092 1114
1093 1110
1093 1115
1094 1115
1095 1097
1095 1114
1096 1115
1100 1115
1100 1245
1101 1103
1101 1105
1102 1264
1102 1338
1105 1109
1106 1110
1106 1115
1113 1115
1116 1118
1116 1122
1116 1125
1116 1131
1116 1136
1116 1158
1116 1163
1116 1177
1116 1185
1116 1189
1116 1197
1116 1202
1116 1211
1116 1214
1116 1261
1116 1339
1116 1362
1116 1372
1116 1379
1117 1130
1117 1132
1117 1134
1117 1139
1117 1141
1117 1145
1117 1162
1117 1167
1117 1170
1117 1173
1117 1188
1117 1216
1117 1241
1117 1270
1117 1274
1117 1276
1117 1283
1117 1296
1117 1301
1117 1338
1117 1340
1117 1342
1117 1349
1117 1358
1117 1364
1117 1379
1117 1398
1118 1120
1118 1130
1118 1152
1118 1208
1118 1227
1118 1234
1118 1258
1118 1266
1118 1275
1118 1278
1118 1354
1118 1357
1118 1390
1118 1398
1119 1121
1119 1137
1119 1153
1119 1164
1119 1172
1119 1177
1119 1179
1119 1194
1119 1196
1119 1213
1119 1215
1119 1238
1119 1246
1119 1248
1119 1260
1119 1264
1119 1265
1119 1274
1119 1279
1119 1286
1119 1295
1119 1319
1119 1340
1119 1360
1119 1370
1119 1394
1120 1122
1120 1125
1120 1151
1120 1156
1120 1172
1120 1179
1120 1182
1120 1185
1120 1188
1120 1189
1120 1194
1120 1200
1120 1212
1120 1224
1120 1231
1120 1252
1120 1265
1120 1274
1120 1296
1120 1304
1120 1311
1120 1322
1120 1335
1120 1336
1120 1366
1120 1389
1121 1124
1121 1135
1121 1144
1121 1145
1121 1154
1121 1194
1121 1230
1121 1232
1121 1233
1121 1234
1121 1245
1121 1256
1121 1261
1121 1269
1121 1289
1121 1322
1121 1325
1121 1332
1121 1333
1121 1357
1121 1388
1122 1147
1122 1148
1122 1154
1122 1168
1122 1189
1122 1203
1122 1217
1122 1237
1122 1276
1122 1279
1122 1292
1122 1326
1122 1334
1122 1387
1123 1136
1123 1154
1123 1159
1123 1181
1123 1187
1123 1188
1123 1189
1123 1204
1123 1208
1123 1235
1123 1242
1123 1259
1123 1265
1123 1270
1123 1273
1123 1310
1123 1315
1123 1317
1123 1325
1123 1343
1123 1344
1123 1350
1123 1391
1124 1146
1124 1150
1124 1152
1124 1177
1124 1184
1124 1196
1124 1211
1124 1240
1124 1244
1124 1256
1124 1267
1124 1286
1124 1323
1124 1331
1124 1349
1124 1373
1124 1382
1124 1387
1124 1390
1124 1393
1124 1394
1125 1134
1125 1135
1125 1146
1125 1150
1125 1160
1125 1178
1125 1179
1125 1185
1125 1191
1125 1195
1125 1204
1125 1215
1125 1228
1125 1245
1125 1251
1125 1252
1125 1256
1125 1261
1125 1336
1125 1349
1125 1357
1125 1358
1125 1364
1125 1379
1125 1384
1125 1389
1126 1128
1126 1143
1126 1167
1126 1174
1126 1184
1126 1193
1126 1214
1126 1239
1126 1243
1126 1257
1126 1296
1126 1312
1126 1314
1126 1315
1126 1338
1127 1139
1127 1142
1127 1154
1127 1161
1127 1173
1127 1194
1127 1197
1127 1203
1127 1213
1127 1214
1127 1219
1127 1223
1127 1224
1127 1233
1127 1246
1127 1267
1127 1282
1127 1290
1127 1334
1127 1340
1127 1345
1127 1364
1127 1369
1127 1374
1127 1379
1127 1382
1127 1385
1127 1398
1128 1131
1128 1167
1128 1181
1128 1191
1128 1213
1128 1242
1128 1248
1128 1262
1128 1276
1128 1292
1128 1305
1128 1365
1128 1373
1128 1381
1128 1382
1129 1131
1129 1157
1129 1174
1129 1177
1129 1182
1129 1183
1129 1194
1129 1196
1129 1201
1129 1219
1129 1227
1129 1243
1129 1272
1129 1295
1129 1299
1129 1321
1129 1332
1129 1337
1129 1339
1129 1349
1129 1361
1129 1365
1129 1392
1129 1394
1130 1142
1130 1144
1130 1161
1130 1173
1130 1202
1130 1249
1130 1273
1130 1291
1130 1295
1130 1308
1130 1323
1130 1336
1130 1337
1130 1338
1130 1351
1130 1361
1131 1166
1131 1172
1131 1182
1131 1213
1131 1219
1131 1275
1131 1284
1131 1303
1131 1318
1131 1334
1131 1339
1131 1342
1131 1350
1131 1364
1131 1382
1132 1141
1132 1183
1132 1184
1132 1189
1132 1206
1132 1220
1132 1241
1132 1244
1132 1279
1132 1282
1132 1297
1132 1324
1132 1334
1132 1351
1132 1358
1133 1177
1133 1195
1133 1196
1133 1234
1133 1245
1133 1260
1133 1279
1133 1283
1133 1287
1133 1290
1133 1292
1133 1294
1133 1310
1133 1312
1133 1317
1133 1335
1133 1344
1133 1356
1133 1382
1133 1394
1134 1141
1134 1147
1134 1179
1134 1186
1134 1190
1134 1194
1134 1210
1134 1257
1134 1262
1134 1312
1134 1343
1134 1344
1134 1365
1134 1378
1134 1392
1134 1395
1134 1397
1135 1165
1135 1169
1135 1176
1135 1188
1135 1246
1135 1254
1135 1274
1135 1288
1135 1293
1135 1344
1135 1395
1135 1397
1136 1143
1136 1158
1136 1183
1136 1204
1136 1208
1136 1209
1136 1215
1136 1217
1136 1229
1136 1237
1136 1270
1136 1281
1136 1283
1136 1284
1136 1294
1136 1302
1136 1310
1136 1319
1136 1326
1136 1353
1136 1359
1136 1363
1136 1374
1136 1382
1136 1384
1136 1387
1137 1138
1137 1149
1137 1159
1137 1187
1137 1200
1137 1207
1137 1211
1137 1220
1137 1266
1137 1275
1137 1280
1137 1303
1137 1335
1137 1338
1137 1342
1137 1345
1137 1346
1137 1347
1137 1355
1137 1379
1137 1381
1137 1390
1138 1180
1138 1186
1138 1191
1138 1195
1138 1200
1138 1219
1138 1232
1138 1247
1138 1253
1138 1293
1138 1306
1138 1310
1138 1314
1138 1346
1138 1381
1138 1390
1139 1140
1139 1158
1139 1175
1139 1179
1139 1191
1139 1208
1139 1252
1139 1257
1139 1284
1139 1291
1139 1307
1139 1335
1139 1341
1139 1343
1139 1349
1139 1357
1139 1366
1139 1368
1139 1377
1139 1384
1139 1385
1139 1386
1140 1146
1140 1155
1140 1175
1140 1183
1140 1200
1140 1228
1140 1241
1140 1276
1140 1329
1140 1335
1140 1340
1140 1352
1140 1355
1140 1358
1140 1359
1140 1362
1140 1371
1141 1162
1141 1182
1141 1186
1141 1197
1141 1212
1141 1217
1141 1227
1141 1263
1141 1267
1141 1279
1141 1298
1141 1304
1141 1318
1141 1326
1141 1333
1141 1369
1141 1382
1142 1147
1142 1171
1142 1174
1142 1177
1142 1178
1142 1182
1142 1191
1142 1210
1142 1213
1142 1217
1142 1264
1142 1300
1142 1308
1142 1314
1142 1344
1142 1362
1142 1365
1142 1382
1142 1386
1143 1150
1143 1161
1143 1183
1143 1195
1143 1209
1143 1223
1143 1250
1143 1252
1143 1265
1143 1285
1143 1305
1143 1310
1143 1328
1143 1330
1143 1341
1143 1361
1143 1377
1143 1380
1143 1389
1144 1154
1144 1165
1144 1184
1144 1204
1144 1253
1144 1284
1144 1292
1144 1294
1144 1334
1144 1352
1144 1369
1144 1388
1144 1390
1144 1396
1145 1157
1145 1181
1145 1194
1145 1195
1145 1197
1145 1206
1145 1292
1145 1295
1145 1308
1145 1319
1145 1348
1146 1181
1146 1183
1146 1185
1146 1189
1146 1195
1146 1197
1146 1198
1146 1211
1146 1233
1146 1234
1146 1241
1146 1259
1146 1277
1146 1289
1146 1299
1146 1314
1146 1317
1146 1323
1146 1359
1146 1383
1147 1224
1147 1232
1147 1241
1147 1247
1147 1255
1147 1257
1147 1279
1147 1281
1147 1289
1147 1296
1147 1300
1147 1303
1147 1322
1147 1323
1147 1324
1147 1341
1147 1379
1147 1390
1148 1153
1148 1160
1148 1243
1148 1245
1148 1261
1148 1280
1148 1281
1148 1314
1148 1323
1148 1355
1148 1358
1148 1388
1149 1151
1149 1168
1149 1219
1149 1220
1149 1226
1149 1232
1149 1242
1149 1244
1149 1247
1149 1255
1149 1261
1149 1270
1149 1321
1149 1345
1149 1351
1149 1356
1149 1363
1149 1365
1149 1381
1149 1384
1149 1387
1149 1389
1150 1162
1150 1173
1150 1176
1150 1180
1150 1195
1150 1202
1150 1210
1150 1237
1150 1248
1150 1255
1150 1265
1150 1288
1150 1302
1150 1312
1150 1314
1150 1320
1150 1327
1150 1366
1150 1372
1150 1382
1150 1394
1150 1398
1151 1152
1151 1163
1151 1164
1151 1176
1151 1229
1151 1230
1151 1263
1151 1268
1151 1281
1151 1284
1151 1298
1151 1324
1151 1378
1151 1381
1151 1382
1151 1397
1152 1166
1152 1181
1152 1199
1152 1200
1152 1206
1152 1229
1152 1247
1152 1265
1152 1286
1152 1304
1152 1305
1152 1321
1152 1335
1152 1363
1153 1165
1153 1179
1153 1191
1153 1198
1153 1246
1153 1258
1153 1274
1153 1285
1153 1300
1153 1304
1153 1333
1153 1364
1153 1372
1153 1380
1153 1393
1154 1161
1154 1170
1154 1195
1154 1236
1154 1237
1154 1267
1154 1280
1154 1285
1154 1296
1154 1303
1154 1331
1154 1335
1154 1349
1154 1385
1154 1391
1154 1396
1154 1398
1155 1164
1155 1195
1155 1213
1155 1244
1155 1250
1155 1276
1155 1279
1155 1288
1155 1292
1155 1319
1155 1342
1155 1371
1155 1387
1155 1388
1155 1390
1156 1186
1156 1187
1156 1192
1156 1199
1156 1225
1156 1238
1156 1246
1156 1265
1156 1301
1156 1305
1156 1314
1156 1334
1156 1339
1156 1348
1156 1353
1156 1360
1156 1365
1156 1385
1156 1392
1157 1176
1157 1192
1157 1210
1157 1216
1157 1235
1157 1330
1157 1336
1157 1341
1157 1342
1157 1349
1157 1354
1157 1373
1158 1161
1158 1174
1158 1188
1158 1199
1158 1213
1158 1261
1158 1264
1158 1270
1158 1273
1158 1274
1158 1277
1158 1287
1158 1300
1158 1330
1158 1334
1158 1353
1158 1368
1158 1383
1158 1392
1159 1237
1159 1240
1159 1244
1159 1254
1159 1263
1159 1269
1159 1297
1159 1301
1159 1302
1159 1373
1159 1377
1159 1381
1159 1395
1160 1192
1160 1212
1160 1230
1160 1238
1160 1248
1160 1260
1160 1267
1160 1279
1160 1280
1160 1308
1160 1313
1160 1319
1160 1329
1160 1332
1160 1335
1160 1347
1160 1349
1160 1367
1160 1370
1160 1398
1161 1172
1161 1182
1161 1230
1161 1246
1161 1252
1161 1291
1161 1294
1161 1304
1161 1334
1162 1163
1162 1177
1162 1207
1162 1211
1162 1212
1162 1241
1162 1258
1162 1273
1162 1278
1162 1280
1162 1297
1162 1304
1162 1322
1162 1324
1162 1326
1162 1336
1162 1356
1162 1373
1162 1385
1163 1169
1163 1175
1163 1188
1163 1193
1163 1200
1163 1218
1163 1255
1163 1268
1163 1286
1163 1290
1163 1343
1163 1363
1163 1394
1163 1395
1163 1396
1163 1397
1164 1183
1164 1191
1164 1205
1164 1208
1164 1213
1164 1216
1164 1230
1164 1276
1164 1281
1164 1315
1164 1361
1164 1378
1164 1382
1164 1383
1164 1394
1164 1398
1165 1169
1165 1174
1165 1191
1165 1194
1165 1195
1165 1205
1165 1232
1165 1252
1165 1254
1165 1256
1165 1267
1165 1298
1165 1301
1165 1303
1165 1305
1165 1317
1165 1328
1165 1334
1165 1352
1165 1365
1165 1374
1165 1380
1165 1385
1165 1390
1165 1396
1166 1171
1166 1180
1166 1192
1166 1194
1166 1196
1166 1204
1166 1207
1166 1281
1166 1294
1166 1299
1166 1311
1166 1325
1166 1373
1166 1376
1166 1385
1167 1168
1167 1171
1167 1185
1167 1190
1167 1200
1167 1217
1167 1226
1167 1232
1167 1244
1167 1258
1167 1263
1167 1279
1167 1283
1167 1306
1167 1318
1167 1336
1167 1344
1167 1348
1167 1371
1168 1178
1168 1179
1168 1193
1168 1199
1168 1251
1168 1317
1168 1318
1168 1345
1168 1387
1168 1395
1169 1182
1169 1189
1169 1196
1169 1204
1169 1243
1169 1280
1169 1288
1169 1298
1169 1314
1169 1315
1169 1343
1169 1344
1169 1369
1169 1378
1169 1388
1170 1179
1170 1236
1170 1238
1170 1249
1170 1269
1170 1271
1170 1274
1170 1286
1170 1302
1170 1322
1170 1331
1170 1346
1170 1360
1170 1364
1170 1387
1171 1181
1171 1201
1171 1229
1171 1238
1171 1267
1171 1297
1171 1320
1171 1325
1171 1355
1172 1203
1172 1208
1172 1211
1172 1212
1172 1234
1172 1246
1172 1248
1172 1264
1172 1269
1172 1277
1172 1295
1172 1299
1172 1303
1172 1323
1172 1325
1172 1328
1172 1332
1173 1200
1173 1203
1173 1210
1173 1228
1173 1236
1173 1243
1173 1259
1173 1277
1173 1288
1173 1295
1173 1304
1173 1306
1173 1341
1173 1344
1173 1388
1173 1389
1173 1397
1174 1177
1174 1185
1174 1199
1174 1213
1174 1236
1174 1256
1174 1264
1174 1291
1174 1294
1174 1337
1174 1346
1174 1377
1174 1378
1175 1179
1175 1190
1175 1214
1175 1222
1175 1227
1175 1237
1175 1315
1175 1332
1175 1360
1176 1179
1176 1183
1176 1204
1176 1218
1176 1221
1176 1232
1176 1257
1176 1272
1176 1275
1176 1299
1176 1303
1176 1316
1176 1321
1176 1345
1176 1352
1176 1357
1176 1358
1176 1389
1176 1396
1177 1199
1177 1200
1177 1226
1177 1227
1177 1235
1177 1236
1177 1254
1177 1274
1177 1278
1177 1289
1177 1294
1177 1332
1177 1352
1177 1358
1177 1361
1177 1378
1177 1392
1177 1394
1178 1185
1178 1192
1178 1193
1178 1203
1178 1227
1178 1228
1178 1242
1178 1263
1178 1265
1178 1319
1178 1320
1178 1323
1178 1335
1178 1346
1178 1361
1178 1370
1178 1377
1178 1380
1178 1388
1178 1398
1179 1218
1179 1227
1179 1240
1179 1279
1179 1300
1179 1301
1179 1312
1179 1322
1179 1334
1179 1358
1179 1359
1179 1367
1179 1379
1179 1392
1180 1196
1180 1197
1180 1207
1180 1226
1180 1241
1180 1258
1180 1262
1180 1289
1180 1324
1180 1331
1180 1337
1180 1338
1180 1349
1180 1355
1180 1357
1180 1366
1180 1375
1180 1389
1180 1393
1181 1184
1181 1186
1181 1201
1181 1253
1181 1327
1181 1332
1181 1343
1181 1352
1181 1376
1181 1386
1181 1387
1182 1183
1182 1203
1182 1216
1182 1217
1182 1219
1182 1236
1182 1241
1182 1249
1182 1253
1182 1267
1182 1281
1182 1319
1182 1330
1182 1351
1182 1365
1182 1376
1182 1380
1182 1390
1182 1391
1182 1395
1182 1398
1183 1189
1183 1196
1183 1234
1183 1239
1183 1251
1183 1254
1183 1256
1183 1261
1183 1263
1183 1273
1183 1274
1183 1286
1183 1297
1183 1298
1183 1314
1183 1318
1183 1345
1183 1352
1183 1369
1183 1373
1183 1386
1184 1218
1184 1273
1184 1287
1184 1314
1184 1322
1184 1345
1184 1364
1184 1371
1184 1379
1185 1206
1185 1216
1185 1321
1185 1339
1185 1361
1185 1384
1185 1392
1186 1187
1186 1201
1186 1214
1186 1256
1186 1264
1186 1270
1186 1303
1186 1316
1186 1350
1186 1353
1186 1375
1187 1204
1187 1208
1187 1264
1187 1280
1187 1282
1187 1301
1187 1305
1187 1316
1187 1321
1187 1322
1187 1327
1187 1342
1187 1349
1188 1189
1188 1223
1188 1224
1188 1226
1188 1268
1188 1270
1188 1272
1188 1278
1188 1284
1188 1299
1188 1321
1188 1343
1188 1353
1188 1360
1188 1366
1188 1381
1189 1195
1189 1209
1189 1218
1189 1247
1189 1266
1189 1279
1189 1282
1189 1290
1189 1291
1189 1305
1189 1317
1189 1322
1189 1323
1189 1332
1189 1359
1189 1364
1189 1377
1189 1388
1190 1204
1190 1217
1190 1228
1190 1233
1190 1240
1190 1292
1190 1295
1190 1301
1190 1328
1190 1332
1190 1372
1190 1383
1190 1392
1190 1397
1191 1194
1191 1237
1191 1242
1191 1266
1191 1273
1191 1288
1191 1293
1191 1302
1191 1307
1191 1312
1191 1322
1191 1323
1191 1334
1191 1346
1191 1350
1191 1359
1191 1370
1191 1376
1191 1395
1192 1199
1192 1218
1192 1223
1192 1234
1192 1247
1192 1250
1192 1273
1192 1276
1192 1298
1192 1303
1192 1325
1192 1355
1192 1356
1192 1361
1192 1372
1192 1378
1192 1398
1193 1197
1193 1223
1193 1245
1193 1271
1193 1283
1193 1289
1193 1317
1193 1329
1193 1331
1193 1340
1193 1367
1193 1377
1193 1378
1194 1202
1194 1221
1194 1222
1194 1243
1194 1261
1194 1267
1194 1270
1194 1278
1194 1300
1194 1313
1194 1328
1194 1338
1194 1355
1194 1367
1194 1387
1195 1210
1195 1216
1195 1261
1195 1278
1195 1306
1195 1321
1195 1327
1195 1328
1195 1350
1195 1356
1195 1363
1195 1368
1195 1369
1195 1380
1195 1381
1195 1392
1196 1224
1196 1282
1196 1305
1196 1310
1196 1326
1196 1349
1196 1384
1196 1388
1196 1392
1197 1225
1197 1243
1197 1315
1197 1322
1197 1329
1197 1342
1197 1343
1197 1345
1197 1349
1197 1374
1197 1385
1198 1216
1198 1217
1198 1223
1198 1233
1198 1285
1198 1294
1198 1295
1198 1306
1198 1316
1198 1343
1198 1352
1198 1355
1198 1362
1198 1372
1198 1390
1199 1205
1199 1215
1199 1236
1199 1242
1199 1251
1199 1256
1199 1280
1199 1290
1199 1293
1199 1312
1199 1321
1199 1330
1199 1350
1199 1366
1199 1373
1199 1385
1200 1220
1200 1232
1200 1235
1200 1236
1200 1260
1200 1288
1200 1291
1200 1337
1200 1346
1200 1356
1201 1235
1201 1251
1201 1254
1201 1268
1201 1269
1201 1284
1201 1317
1201 1324
1201 1361
1201 1386
1201 1388
1201 1394
1202 1229
1202 1256
1202 1257
1202 1265
1202 1281
1202 1333
1202 1339
1202 1340
1202 1343
1202 1363
1203 1205
1203 1230
1203 1256
1203 1263
1203 1273
1203 1285
1203 1331
1203 1397
1204 1211
1204 1224
1204 1228
1204 1255
1204 1267
1204 1270
1204 1277
1204 1285
1204 1288
1204 1304
1204 1308
1204 1341
1204 1364
1204 1377
1205 1217
1205 1223
1205 1226
1205 1253
1205 1258
1205 1266
1205 1272
1205 1275
1205 1281
1205 1308
1205 1332
1205 1337
1205 1350
1205 1364
1205 1368
1205 1370
1205 1372
1205 1379
1206 1212
1206 1213
1206 1233
1206 1242
1206 1252
1206 1271
1206 1276
1206 1281
1206 1287
1206 1303
1206 1310
1206 1317
1206 1324
1206 1326
1206 1357
1206 1361
1206 1366
1206 1374
1206 1395
1207 1222
1207 1226
1207 1229
1207 1240
1207 1241
1207 1277
1207 1325
1207 1327
1207 1334
1207 1344
1207 1351
1207 1378
1207 1393
1207 1397
1208 1218
1208 1224
1208 1234
1208 1248
1208 1261
1208 1266
1208 1271
1208 1305
1208 1326
1208 1372
1208 1380
1208 1395
1208 1398
1209 1220
1209 1239
1209 1268
1209 1277
1209 1284
1209 1285
1209 1311
1209 1320
1209 1339
1209 1348
1209 1350
1209 1356
1209 1361
1209 1398
1210 1239
1210 1243
1210 1250
1210 1276
1210 1285
1210 1289
1210 1317
1210 1385
1210 1386
1210 1391
1211 1222
1211 1224
1211 1235
1211 1242
1211 1244
1211 1254
1211 1269
1211 1270
1211 1271
1211 1290
1211 1294
1211 1338
1211 1377
1211 1387
1212 1225
1212 1253
1212 1258
1212 1263
1212 1268
1212 1304
1212 1305
1212 1306
1212 1322
1212 1389
1213 1217
1213 1221
1213 1234
1213 1244
1213 1245
1213 1274
1213 1298
1213 1301
1213 1305
1213 1331
1213 1344
1213 1366
1214 1245
1214 1299
1214 1329
1214 1339
1214 1365
1214 1369
1214 1372
1214 1380
1214 1395
1214 1398
1215 1218
1215 1226
1215 1267
1215 1279
1215 1296
1215 1335
1215 1338
1215 1340
1215 1360
1215 1370
1215 1385
1216 1219
1216 1238
1216 1264
1216 1266
1216 1290
1216 1292
1216 1326
1216 1338
1216 1378
1216 1394
1217 1222
1217 1230
1217 1235
1217 1241
1217 1247
1217 1248
1217 1262
1217 1264
1217 1274
1217 1277
1217 1305
1217 1313
1217 1321
1217 1324
1217 1326
1217 1335
1217 1354
1217 1359
1217 1363
1217 1383
1218 1224
1218 1228
1218 1238
1218 1241
1218 1246
1218 1247
1218 1262
1218 1275
1218 1293
1218 1308
1218 1312
1218 1327
1218 1332
1218 1345
1218 1355
1218 1357
1218 1374
1218 1384
1218 1397
1219 1226
1219 1239
1219 1252
1219 1259
1219 1270
1219 1275
1219 1287
1219 1304
1219 1320
1219 1322
1219 1330
1219 1350
1219 1353
1219 1363
1219 1367
1219 1374
1219 1384
1219 1386
1219 1390
1219 1393
1220 1221
1220 1227
1220 1243
1220 1249
1220 1251
1220 1259
1220 1260
1220 1305
1220 1327
1220 1380
1220 1386
1220 1389
1220 1396
1221 1223
1221 1253
1221 1254
1221 1263
1221 1265
1221 1272
1221 1274
1221 1276
1221 1298
1221 1317
1221 1333
1221 1335
1221 1340
1221 1353
1221 1362
1221 1380
1221 1385
1221 1395
1222 1234
1222 1261
1222 1286
1222 1289
1222 1325
1222 1329
1222 1362
1222 1366
1222 1387
1223 1225
1223 1251
1223 1261
1223 1272
1223 1290
1223 1291
1223 1304
1223 1308
1223 1352
1223 1355
1223 1365
1223 1366
1223 1369
1223 1378
1223 1384
1224 1233
1224 1237
1224 1238
1224 1260
1224 1313
1224 1318
1224 1362
1224 1379
1224 1384
1225 1227
1225 1252
1225 1259
1225 1306
1225 1313
1225 1319
1225 1347
1225 1365
1225 1369
1226 1249
1226 1261
1226 1267
1226 1268
1226 1277
1226 1287
1226 1308
1226 1339
1226 1349
1226 1352
1226 1354
1226 1357
1226 1367
1226 1374
1227 1234
1227 1243
1227 1257
1227 1263
1227 1264
1227 1272
1227 1278
1227 1288
1227 1321
1227 1323
1227 1358
1227 1363
1227 1366
1227 1392
1228 1244
1228 1255
1228 1259
1228 1268
1228 1277
1228 1278
1228 1287
1228 1296
1228 1310
1228 1317
1228 1327
1228 1329
1228 1331
1228 1362
1228 1363
1228 1379
1228 1383
1229 1234
1229 1243
1229 1262
1229 1297
1229 1308
1229 1315
1229 1323
1229 1338
1229 1349
1229 1355
1229 1363
1229 1365
1229 1398
1230 1249
1230 1266
1230 1318
1230 1320
1230 1327
1230 1377
1231 1232
1231 1243
1231 1252
1231 1256
1231 1289
1231 1295
1231 1302
1231 1305
1231 1316
1231 1317
1231 1333
1231 1342
1231 1346
1231 1347
1231 1352
1231 1359
1231 1369
1231 1378
1231 1397
1232 1249
1232 1259
1232 1268
1232 1271
1232 1280
1232 1289
1232 1326
1232 1331
1232 1345
1232 1353
1232 1374
1232 1375
1232 1380
1232 1381
1232 1382
1233 1248
1233 1254
1233 1257
1233 1259
1233 1271
1233 1285
1233 1295
1233 1305
1233 1319
1233 1320
1233 1323
1233 1358
1233 1389
1234 1238
1234 1249
1234 1258
1234 1272
1234 1288
1234 1304
1234 1309
1234 1329
1234 1353
1234 1355
1234 1382
1234 1387
1235 1273
1235 1290
1235 1296
1235 1325
1235 1343
1235 1345
1235 1350
1235 1355
1235 1356
1235 1366
1235 1382
1235 1386
1235 1398
1236 1240
1236 1242
1236 1246
1236 1252
1236 1255
1236 1257
1236 1258
1236 1283
1236 1286
1236 1290
1236 1299
1236 1310
1236 1312
1236 1319
1236 1333
1236 1355
1236 1367
1236 1394
1237 1271
1237 1290
1237 1292
1237 1302
1237 1310
1237 1341
1237 1378
1238 1246
1238 1247
1238 1255
1238 1281
1238 1286
1238 1305
1238 1324
1238 1325
1238 1342
1238 1349
1238 1351
1239 1241
1239 1266
1239 1273
1239 1285
1239 1288
1239 1303
1239 1310
1239 1317
1239 1339
1239 1341
1239 1343
1239 1344
1239 1354
1239 1365
1239 1370
1239 1380
1240 1244
1240 1245
1240 1253
1240 1257
1240 1263
1240 1284
1240 1287
1240 1296
1240 1348
1240 1362
1240 1371
1240 1381
1240 1387
1240 1398
1241 1267
1241 1274
1241 1291
1241 1294
1241 1315
1241 1331
1241 1343
1242 1246
1242 1260
1242 1264
1242 1292
1242 1337
1242 1368
1242 1374
1242 1375
1242 1382
1242 1385
1243 1264
1243 1272
1243 1274
1243 1287
1243 1298
1243 1302
1243 1306
1243 1338
1243 1339
1243 1351
1243 1389
1243 1392
1244 1256
1244 1271
1244 1309
1244 1374
1245 1248
1245 1251
1245 1299
1245 1309
1245 1313
1245 1326
1245 1330
1245 1367
1245 1385
1245 1386
1246 1289
1246 1311
1246 1313
1246 1344
1246 1345
1246 1353
1246 1363
1246 1373
1246 1376
1246 1388
1246 1393
1247 1264
1247 1270
1247 1291
1247 1301
1247 1305
1247 1312
1247 1317
1247 1336
1247 1348
1247 1368
1247 1373
1247 1386
1247 1398
1248 1254
1248 1270
1248 1292
1248 1303
1248 1307
1248 1308
1248 1315
1248 1319
1248 1334
1248 1338
1248 1340
1248 1341
1248 1353
1248 1369
1248 1371
1248 1387
1249 1250
1249 1256
1249 1302
1249 1309
1249 1315
1249 1339
1249 1352
1249 1354
1249 1370
1250 1252
1250 1270
1250 1282
1250 1304
1250 1306
1250 1331
1250 1342
1250 1376
1250 1381
1250 1386
1251 1276
1251 1278
1251 1284
1251 1287
1251 1292
1251 1299
1251 1301
1251 1319
1251 1324
1251 1336
1251 1342
1251 1367
1251 1380
1251 1381
1251 1390
1251 1391
1252 1269
1252 1303
1252 1317
1252 1323
1252 1346
1252 1363
1253 1259
1253 1265
1253 1266
1253 1276
1253 1328
1253 1339
1253 1347
1253 1353
1253 1354
1253 1364
1253 1365
1253 1375
1254 1284
1254 1310
1254 1324
1254 1332
1254 1344
1254 1374
1254 1386
1254 1387
1255 1270
1255 1274
1255 1319
1255 1332
1255 1335
1255 1357
1255 1369
1255 1377
1255 1380
1255 1381
1255 1395
1256 1273
1256 1280
1256 1322
1256 1333
1256 1349
1257 1260
1257 1282
1257 1294
1257 1297
1257 1337
1257 1339
1257 1340
1257 1342
1257 1365
1257 1372
1258 1277
1258 1308
1258 1316
1258 1330
1258 1382
1258 1386
1258 1387
1259 1285
1259 1293
1259 1354
1259 1361
1259 1388
1260 1275
1260 1277
1260 1285
1260 1288
1260 1292
1260 1296
1260 1300
1260 1320
1260 1321
1260 1324
1260 1329
1260 1334
1260 1337
1260 1340
1260 1342
1260 1377
1260 1392
1261 1274
1261 1281
1261 1295
1261 1342
1261 1346
1261 1370
1261 1371
1262 1263
1262 1270
1262 1300
1262 1301
1262 1306
1262 1317
1262 1326
1262 1330
1262 1332
1262 1342
1262 1388
1262 1390
1263 1272
1263 1276
1263 1293
1263 1294
1263 1356
1263 1384
1263 1388
1263 1390
1263 1395
1264 1276
1264 1279
1264 1288
1264 1353
1264 1358
1264 1360
1264 1364
1264 1371
1264 1385
1265 1282
1265 1284
1265 1311
1265 1314
1265 1328
1265 1345
1265 1350
1265 1387
1266 1270
1266 1289
1266 1315
1266 1325
1266 1331
1266 1359
1266 1372
1266 1374
1266 1380
1267 1282
1267 1295
1267 1311
1267 1317
1267 1327
1267 1329
1267 1334
1267 1340
1267 1341
1267 1372
1267 1393
1268 1271
1268 1292
1268 1297
1268 1327
1268 1373
1268 1380
1269 1276
1269 1289
1269 1338
1269 1348
1269 1395
1269 1398
1270 1295
1270 1304
1270 1329
1270 1353
1270 1355
1270 1363
1270 1383
1270 1385
1270 1396
1271 1277
1271 1281
1271 1297
1271 1315
1271 1317
1271 1318
1271 1320
1271 1334
1271 1344
1271 1348
1271 1366
1271 1368
1271 1398
1272 1285
1272 1292
1272 1303
1272 1312
1272 1314
1272 1323
1272 1340
1272 1346
1272 1347
1273 1300
1273 1314
1273 1338
1273 1369
1273 1370
1273 1383
1273 1395
1274 1295
1274 1329
1274 1337
1274 1346
1274 1367
1274 1379
1274 1391
1275 1287
1275 1320
1275 1325
1275 1394
1275 1396
1276 1277
1276 1317
1276 1319
1276 1320
1276 1345
1276 1362
1276 1365
1276 1372
1276 1377
1276 1385
1277 1287
1277 1289
1277 1292
1277 1323
1277 1329
1277 1332
1277 1333
1277 1341
1278 1281
1278 1282
1278 1289
1278 1311
1278 1319
1278 1328
1278 1334
1278 1338
1279 1284
1279 1292
1279 1293
1279 1298
1279 1306
1279 1310
1279 1314
1279 1353
1279 1357
1279 1362
1279 1393
1280 1315
1280 1322
1280 1324
1280 1394
1281 1288
1281 1290
1281 1299
1281 1300
1281 1310
1281 1315
1281 1326
1281 1332
1281 1374
1281 1378
1281 1388
1281 1390
1282 1293
1282 1300
1282 1302
1282 1333
1282 1357
1282 1377
1282 1384
1282 1395
1283 1295
1283 1298
1283 1315
1283 1330
1283 1339
1283 1356
1283 1371
1283 1383
1283 1396
1284 1323
1284 1340
1284 1341
1284 1351
1284 1357
1284 1358
1284 1359
1284 1361
1284 1371
1284 1378
1285 1287
1285 1294
1285 1315
1285 1362
1286 1289
1286 1292
1286 1300
1286 1303
1286 1317
1286 1352
1287 1321
1287 1330
1287 1332
1287 1335
1287 1360
1287 1390
1288 1292
1288 1299
1288 1317
1288 1343
1288 1351
1288 1354
1288 1360
1288 1388
1288 1393
1289 1336
1289 1337
1289 1343
1289 1363
1289 1364
1289 1366
1289 1368
1289 1370
1289 1385
1289 1393
1289 1396
1290 1297
1290 1320
1290 1334
1290 1336
1290 1346
1290 1352
1290 1361
1290 1368
1290 1375
1290 1387
1290 1397
1291 1304
1291 1308
1291 1309
1291 1310
1291 1320
1291 1343
1291 1346
1291 1348
1291 1350
1291 1367
1291 1368
1291 1377
1291 1380
1292 1294
1292 1299
1292 1317
1292 1323
1292 1332
1292 1362
1292 1385
1293 1298
1293 1300
1293 1318
1293 1323
1293 1336
1293 1371
1293 1376
1293 1385
1293 1389
1294 1313
1294 1315
1294 1327
1294 1331
1294 1339
1294 1346
1294 1348
1294 1362
1294 1364
1294 1398
1295 1311
1295 1318
1295 1323
1295 1329
1295 1344
1295 1345
1295 1348
1295 1366
1295 1371
1296 1307
1296 1323
1296 1326
1296 1332
1296 1333
1296 1362
1296 1389
1297 1307
1297 1323
1297 1334
1297 1335
1297 1374
1297 1380
1298 1336
1298 1342
1298 1347
1298 1359
1298 1365
1298 1368
1298 1381
1298 1388
1298 1393
1298 1395
1299 1306
1299 1327
1299 1328
1299 1350
1299 1361
1299 1362
1299 1375
1299 1377
1299 1381
1299 1383
1299 1398
1300 1322
1300 1327
1300 1328
1300 1331
1300 1333
1300 1338
1300 1387
1301 1302
1301 1315
1301 1327
1301 1340
1301 1377
1301 1378
1301 1398
1302 1319
1302 1354
1302 1356
1302 1373
1302 1374
1303 1311
1303 1313
1303 1322
1303 1327
1303 1330
1303 1333
1303 1354
1303 1380
1303 1398
1304 1306
1304 1316
1304 1334
1304 1335
1304 1344
1304 1373
1305 1334
1305 1344
1305 1370
1305 1378
1305 1393
1305 1397
1306 1312
1306 1322
1306 1340
1306 1370
1306 1372
1306 1382
1307 1314
1307 1330
1307 1341
1307 1343
1307 1367
1307 1372
1307 1376
1307 1389
1308 1310
1308 1340
1308 1361
1308 1378
1309 1319
1309 1321
1309 1344
1309 1372
1310 1320
1310 1355
1310 1368
1310 1370
1311 1313
1311 1341
1311 1347
1311 1351
1311 1372
1311 1373
1312 1317
1312 1321
1312 1324
1312 1336
1312 1338
1312 1348
1312 1350
1312 1358
1313 1325
1313 1335
1313 1355
1314 1352
1314 1357
1315 1320
1315 1325
1315 1333
1315 1338
1315 1347
1315 1350
1315 1364
1315 1390
1315 1395
1316 1318
1316 1320
1316 1322
1316 1335
1316 1336
1316 1353
1317 1326
1317 1344
1317 1345
1317 1363
1317 1382
1317 1384
1317 1389
1318 1326
1318 1362
1318 1387
1319 1322
1319 1343
1319 1354
1319 1364
1319 1385
1319 1388
1320 1350
1320 1367
1320 1385
1320 1395
1321 1331
1321 1338
1321 1374
1321 1393
1322 1353
1322 1360
1322 1382
1323 1336
1323 1348
1323 1356
1323 1373
1323 1374
1323 1378
1324 1326
1324 1333
1324 1346
1324 1353
1324 1368
1324 1380
1324 1388
1324 1393
1325 1341
1325 1378
1325 1383
1325 1386
1326 1333
1326 1373
1326 1378
1326 1393
1327 1340
1327 1365
1327 1377
1327 1386
1327 1391
1327 1393
1327 1395
1328 1343
1328 1354
1328 1358
1328 1361
1328 1374
1328 1385
1328 1391
1328 1393
1329 1335
1329 1358
1329 1360
1329 1361
1329 1363
1329 1372
1329 1375
1330 1338
1330 1363
1330 1371
1330 1396
1331 1339
1331 1347
1331 1382
1332 1334
1332 1348
1332 1350
1332 1369
1332 1370
1332 1378
1332 1389
1333 1352
1333 1369
1333 1386
1334 1339
1334 1369
1334 1389
1335 1339
1335 1344
1335 1346
1335 1351
1335 1358
1335 1360
1335 1361
1335 1375
1335 1382
1335 1390
1336 1345
1336 1350
1336 1351
1336 1359
1336 1378
1336 1379
1336 1387
1337 1338
1337 1379
1337 1387
1337 1392
1338 1340
1338 1346
1338 1365
1338 1385
1339 1355
1339 1373
1340 1348
1340 1354
1340 1365
1340 1398
1341 1343
1341 1349
1341 1392
1341 1395
1342 1355
1342 1368
1342 1383
1342 1391
1342 1393
1343 1368
1343 1380
1343 1392
1344 1359
1344 1377
1345 1346
1345 1354
1345 1356
1345 1361
1345 1375
1345 1378
1345 1384
1345 1389
1345 1396
1346 1366
1346 1381
1346 1392
1346 1397
1347 1369
1348 1349
1348 1352
1348 1362
1348 1368
1348 1386
1348 1388
1348 1389
1348 1394
1349 1364
1349 1366
1349 1377
1349 1381
1350 1354
1350 1363
1350 1367
1350 1370
1350 1391
1351 1362
1351 1364
1351 1375
1351 1386
1352 1363
1352 1369
1352 1374
1352 1377
1352 1389
1352 1390
1353 1355
1353 1367
1353 1375
1354 1365
1354 1369
1354 1391
1355 1364
1355 1369
1355 1374
1355 1378
1355 1382
1355 1389
1356 1381
1357 1390
1357 1397
1358 1379
1358 1395
1358 1397
1358 1398
1359 1364
1359 1371
1359 1375
1359 1380
1359 1391
1360 1369
1361 1362
1361 1366
1361 1382
1361 1387
1361 1394
1361 1397
1362 1365
1362 1382
1362 1392
1362 1395
1362 1398
1363 1386
1363 1392
1364 1367
1364 1374
1364 1384
1364 1393
1365 1366
1365 1372
1365 1375
1365 1381
1365 1385
1367 1375
1367 1388
1367 1392
1368 1371
1368 1375
1368 1376
1369 1383
1370 1371
1370 1383
1370 1398
1371 1378
1371 1393
1371 1396
1372 1377
1372 1382
1372 1387
1373 1391
1374 1382
1374 1392
1376 1396
1378 1389
1378 1398
1380 1392
1381 1390
1381 1398
1382 1396
1383 1384
1383 1394
1384 1387
1385 1386
1385 1387
1385 1389
1385 1390
1385 1391
1386 1387
1386 1388
1388 1397
1389 1390
1390 1396
1393 1397
