0 56
0 317
0 328
0 542
0 563
0 637
0 717
0 754
0 845
0 857
0 863
0 971
0 1003
0 1052
0 1154
0 1183
0 1344
1 77
1 163
1 172
1 198
1 234
1 261
1 266
1 275
1 375
1 396
1 461
1 551
1 584
1 604
1 759
1 779
1 844
1 872
1 892
1 948
1 952
1 974
1 986
1 987
1 1007
1 1025
1 1104
1 1122
1 1123
1 1132
1 1145
1 1161
1 1170
1 1186
1 1204
1 1212
1 1217
1 1258
1 1295
1 1324
1 1356
1 1383
2 7
2 10
2 89
2 112
2 141
2 167
2 168
2 244
2 309
2 316
2 453
2 470
2 495
2 543
2 670
2 709
2 793
2 804
2 853
2 896
2 901
2 911
2 996
2 1026
2 1036
2 1049
2 1079
2 1095
2 1167
2 1172
2 1355
2 1360
2 1390
3 4
3 199
3 204
3 258
3 352
3 355
3 374
3 417
3 439
3 461
3 468
3 494
3 513
3 540
3 575
3 589
3 599
3 614
3 745
3 753
3 778
3 888
3 892
3 975
3 987
3 1085
3 1097
3 1109
3 1161
3 1195
3 1230
3 1258
3 1271
3 1283
3 1371
3 1381
4 29
4 33
4 50
4 52
4 68
4 77
4 86
4 116
4 133
4 166
4 172
4 201
4 204
4 227
4 234
4 248
4 254
4 262
4 277
4 293
4 341
4 346
4 352
4 359
4 367
4 374
4 391
4 396
4 402
4 417
4 454
4 457
4 475
4 482
4 521
4 523
4 561
4 614
4 625
4 669
4 753
4 759
4 781
4 794
4 799
4 821
4 842
4 844
4 871
4 872
4 895
4 898
4 907
4 922
4 934
4 945
4 952
4 981
4 986
4 1019
4 1025
4 1051
4 1054
4 1056
4 1058
4 1085
4 1116
4 1117
4 1119
4 1123
4 1125
4 1126
4 1145
4 1159
4 1166
4 1186
4 1208
4 1249
4 1270
4 1271
4 1283
4 1288
4 1295
4 1314
4 1338
4 1356
5 159
5 245
5 394
5 536
5 537
5 682
5 714
5 766
5 862
5 1235
5 1292
5 1318
5 1370
6 32
6 140
6 182
6 211
6 269
6 272
6 300
6 368
6 381
6 485
6 541
6 624
6 658
6 676
6 729
6 775
6 811
6 928
6 985
6 992
6 1084
7 112
7 235
7 245
7 983
7 996
7 1222
7 1232
7 1235
8 409
8 735
8 809
8 978
8 1242
9 599
9 658
9 1195
10 45
10 74
10 81
10 168
10 192
10 246
10 317
10 348
10 773
10 906
10 996
10 1036
10 1049
10 1107
10 1108
10 1181
10 1194
10 1205
10 1282
10 1344
11 38
11 68
11 74
11 77
11 104
11 117
11 133
11 134
11 138
11 169
11 199
11 241
11 258
11 261
11 268
11 284
11 325
11 331
11 332
11 372
11 388
11 417
11 429
11 434
11 477
11 503
11 596
11 602
11 658
11 669
11 745
11 753
11 755
11 781
11 812
11 837
11 872
11 892
11 952
11 962
11 1019
11 1047
11 1085
11 1093
11 1102
11 1119
11 1123
11 1145
11 1186
11 1236
11 1241
11 1289
11 1321
11 1378
11 1381
12 17
12 33
12 50
12 73
12 139
12 172
12 203
12 204
12 221
12 222
12 234
12 254
12 258
12 275
12 461
12 468
12 545
12 593
12 608
12 669
12 688
12 704
12 712
12 753
12 790
12 888
12 907
12 974
12 980
12 1085
12 1086
12 1104
12 1112
12 1170
12 1258
12 1279
12 1288
12 1324
12 1356
13 64
13 189
13 244
13 280
13 319
13 675
13 728
13 732
13 793
13 997
13 1150
13 1257
13 1386
14 244
14 387
14 400
14 422
14 550
14 569
14 658
14 672
14 689
14 793
14 851
14 906
14 1174
15 579
15 641
15 876
15 1265
15 1345
16 191
16 272
16 425
16 444
16 485
16 515
16 549
16 675
16 728
16 807
16 887
16 1244
16 1330
17 31
17 73
17 94
17 126
17 133
17 134
17 166
17 172
17 176
17 199
17 204
17 229
17 251
17 258
17 262
17 275
17 277
17 284
17 312
17 326
17 332
17 352
17 388
17 402
17 434
17 439
17 461
17 478
17 521
17 535
17 540
17 568
17 575
17 593
17 612
17 631
17 644
17 690
17 691
17 704
17 753
17 755
17 763
17 801
17 812
17 872
17 895
17 899
17 945
17 976
17 1025
17 1085
17 1086
17 1104
17 1117
17 1132
17 1145
17 1184
17 1195
17 1208
17 1258
17 1288
17 1295
17 1312
17 1321
17 1371
17 1373
17 1378
17 1388
18 33
18 39
18 68
18 77
18 94
18 104
18 134
18 138
18 163
18 176
18 180
18 198
18 199
18 203
18 222
18 234
18 248
18 254
18 261
18 268
18 320
18 332
18 374
18 388
18 397
18 434
18 439
18 468
18 490
18 521
18 535
18 561
18 599
18 612
18 615
18 658
18 669
18 683
18 718
18 794
18 801
18 819
18 836
18 871
18 872
18 905
18 940
18 948
18 962
18 975
18 987
18 1047
18 1058
18 1085
18 1091
18 1104
18 1112
18 1169
18 1189
18 1195
18 1204
18 1226
18 1230
18 1258
18 1295
18 1324
18 1342
18 1343
18 1348
18 1362
18 1371
19 115
19 302
19 347
19 473
19 569
19 630
19 666
19 686
19 726
19 746
19 851
19 868
19 955
19 1087
19 1207
19 1209
19 1315
20 287
20 524
20 720
20 758
20 808
20 994
20 1010
20 1229
20 1384
21 149
21 331
21 346
21 397
21 540
21 551
21 561
21 704
21 745
21 759
21 791
21 837
21 898
21 899
21 976
21 981
21 1025
21 1048
21 1086
21 1091
21 1109
21 1161
21 1204
21 1208
21 1270
21 1319
21 1378
21 1383
22 274
22 336
22 458
22 459
22 543
22 558
22 567
22 712
22 740
22 748
22 785
22 789
22 841
22 868
22 955
22 1214
22 1262
22 1289
22 1317
22 1390
22 1397
23 99
23 109
23 124
23 183
23 303
23 323
23 686
23 746
23 776
23 900
23 1016
23 1153
23 1323
24 92
24 137
24 147
24 187
24 216
24 282
24 353
24 407
24 458
24 472
24 558
24 668
24 692
24 702
24 859
24 967
24 1050
24 1113
24 1269
24 1276
24 1359
25 38
25 117
25 133
25 149
25 180
25 198
25 234
25 284
25 350
25 355
25 429
25 490
25 535
25 562
25 608
25 753
25 782
25 799
25 864
25 962
25 974
25 1031
25 1035
25 1085
25 1099
25 1119
25 1159
25 1184
25 1195
25 1208
25 1241
25 1253
25 1303
25 1314
25 1321
25 1378
26 74
26 131
26 141
26 333
26 334
26 687
26 760
26 790
26 970
26 1026
26 1188
26 1210
26 1329
27 259
27 362
27 431
27 519
27 591
27 684
27 912
27 937
27 1267
28 42
28 127
28 214
28 267
28 289
28 432
28 600
28 606
28 632
28 805
28 831
28 972
28 1164
29 169
29 198
29 227
29 513
29 601
29 625
29 683
29 1102
29 1161
30 32
30 57
30 282
30 300
30 310
30 351
30 443
30 662
30 784
30 816
30 850
30 879
30 998
30 1238
30 1247
30 1276
30 1346
31 39
31 79
31 86
31 165
31 176
31 198
31 231
31 248
31 258
31 275
31 325
31 352
31 367
31 388
31 429
31 468
31 507
31 513
31 540
31 577
31 593
31 596
31 614
31 751
31 753
31 763
31 790
31 801
31 871
31 895
31 940
31 974
31 980
31 1031
31 1048
31 1078
31 1085
31 1091
31 1104
31 1119
31 1189
31 1212
31 1236
31 1291
31 1312
31 1362
32 182
32 225
32 243
32 300
32 309
32 495
32 590
32 729
32 768
32 811
32 998
33 73
33 77
33 134
33 149
33 169
33 172
33 200
33 254
33 284
33 293
33 312
33 325
33 355
33 384
33 388
33 402
33 417
33 429
33 439
33 535
33 551
33 596
33 607
33 614
33 683
33 753
33 791
33 799
33 872
33 899
33 923
33 984
33 1019
33 1034
33 1051
33 1085
33 1096
33 1109
33 1117
33 1159
33 1184
33 1186
33 1212
33 1217
33 1271
33 1283
33 1321
33 1338
33 1356
34 51
34 53
34 135
34 151
34 174
34 290
34 393
34 519
34 679
34 697
34 730
34 912
34 920
34 1114
34 1133
34 1136
34 1395
35 43
35 214
35 230
35 252
35 256
35 294
35 338
35 369
35 517
35 572
35 662
35 664
35 675
35 728
35 732
35 831
35 879
35 997
35 1100
35 1243
35 1393
36 580
36 586
36 650
36 685
36 770
36 835
36 867
36 1120
36 1374
37 254
37 948
37 1199
38 50
38 74
38 126
38 133
38 169
38 195
38 201
38 227
38 251
38 277
38 284
38 465
38 479
38 506
38 551
38 575
38 577
38 599
38 603
38 791
38 794
38 842
38 888
38 907
38 948
38 962
38 1109
38 1189
38 1271
38 1312
38 1321
38 1356
39 50
39 68
39 73
39 77
39 80
39 93
39 138
39 149
39 199
39 231
39 251
39 261
39 325
39 326
39 331
39 375
39 396
39 434
39 439
39 457
39 507
39 521
39 577
39 596
39 608
39 704
39 753
39 842
39 844
39 864
39 892
39 925
39 984
39 1025
39 1047
39 1097
39 1104
39 1126
39 1146
39 1288
39 1314
39 1319
39 1324
39 1348
39 1373
40 61
40 591
40 1005
40 1171
40 1267
40 1331
40 1337
40 1376
40 1379
41 81
41 156
41 278
41 348
41 354
41 414
41 504
41 722
41 737
41 765
41 1105
41 1201
41 1233
42 67
42 193
42 218
42 351
42 432
42 462
42 534
42 606
42 720
42 734
42 808
42 850
42 932
42 933
42 1108
42 1181
42 1365
42 1394
43 135
43 252
43 299
43 517
43 532
43 1005
43 1136
43 1337
44 194
44 678
44 764
44 936
44 941
44 1040
44 1118
44 1191
44 1327
45 400
45 401
45 747
45 1049
45 1107
45 1174
45 1252
45 1256
46 145
46 251
46 301
46 337
46 405
46 530
46 600
46 628
46 632
46 1198
46 1221
46 1246
46 1368
47 58
47 179
47 357
47 431
47 553
47 673
47 678
47 684
47 709
47 767
47 771
47 1040
47 1101
47 1167
47 1333
48 193
48 211
48 317
48 525
48 534
48 541
48 611
48 789
48 1171
48 1202
48 1262
48 1344
48 1376
49 408
49 467
49 613
49 711
49 724
50 139
50 198
50 251
50 263
50 284
50 352
50 384
50 417
50 498
50 540
50 551
50 568
50 599
50 745
50 755
50 791
50 907
50 1086
50 1199
50 1253
50 1270
50 1283
50 1324
50 1356
50 1378
51 53
51 173
51 537
51 643
51 659
51 682
51 697
51 1223
52 73
52 93
52 136
52 149
52 172
52 222
52 234
52 248
52 261
52 273
52 284
52 325
52 375
52 396
52 434
52 477
52 540
52 608
52 612
52 704
52 718
52 810
52 812
52 844
52 864
52 871
52 872
52 888
52 895
52 960
52 962
52 1047
52 1148
52 1258
52 1295
52 1319
52 1324
52 1362
52 1381
53 173
53 537
53 643
53 659
53 682
53 697
53 1223
54 122
54 123
54 230
54 340
54 441
54 511
54 533
54 566
54 572
54 597
54 672
54 689
54 693
54 839
54 869
54 938
54 1083
54 1196
54 1255
54 1259
54 1351
55 1091
55 1146
55 1204
56 62
56 99
56 129
56 152
56 288
56 295
56 415
56 717
56 754
56 776
56 1012
56 1023
56 1024
56 1137
56 1149
56 1160
57 82
57 157
57 226
57 228
57 246
57 276
57 392
57 410
57 516
57 656
57 696
57 773
57 813
57 914
57 957
57 998
57 1037
57 1238
57 1251
57 1385
58 60
58 187
58 257
58 446
58 553
58 585
58 620
58 668
58 767
58 1041
58 1065
58 1108
58 1141
58 1171
58 1181
58 1376
59 170
59 338
59 407
59 450
59 544
59 664
59 860
59 908
59 1359
60 170
60 171
60 173
60 183
60 194
60 197
60 213
60 236
60 301
60 337
60 379
60 450
60 472
60 489
60 556
60 578
60 639
60 692
60 767
60 800
60 848
60 886
60 954
60 956
60 1032
60 1041
60 1081
60 1191
60 1206
60 1223
60 1231
60 1323
61 591
61 1005
61 1171
61 1267
61 1331
61 1337
61 1376
61 1379
62 107
62 152
62 155
62 235
62 471
62 622
62 717
62 1222
63 74
63 125
63 297
63 508
63 520
63 647
63 677
63 705
63 869
63 953
63 1165
63 1215
63 1254
64 189
64 244
64 280
64 319
64 675
64 728
64 732
64 793
64 997
64 1150
64 1257
64 1386
65 89
65 297
65 311
65 379
65 436
65 458
65 539
65 558
65 578
65 635
65 798
65 855
65 865
65 890
65 919
65 1095
65 1215
66 188
66 324
66 487
66 627
66 655
66 667
66 670
66 738
66 896
66 903
66 1098
66 1124
66 1299
67 105
67 377
67 432
67 1365
68 77
68 176
68 200
68 204
68 251
68 253
68 254
68 388
68 477
68 478
68 490
68 596
68 599
68 608
68 612
68 625
68 631
68 644
68 753
68 791
68 842
68 888
68 892
68 895
68 948
68 962
68 981
68 984
68 1099
68 1132
68 1199
68 1279
68 1283
68 1289
68 1291
68 1362
69 132
69 164
69 582
69 1009
69 1310
70 109
70 259
70 288
70 342
70 345
70 514
70 563
70 624
70 725
70 863
70 884
70 900
70 937
70 992
70 1083
70 1137
70 1157
70 1255
70 1380
70 1389
70 1391
71 235
71 255
71 510
71 527
71 591
71 894
71 913
71 1222
71 1267
72 327
72 449
72 460
72 466
72 764
72 904
72 941
72 946
72 1069
73 79
73 138
73 148
73 166
73 172
73 198
73 201
73 203
73 222
73 263
73 268
73 277
73 315
73 346
73 388
73 417
73 434
73 439
73 465
73 468
73 506
73 535
73 547
73 599
73 608
73 614
73 658
73 799
73 801
73 842
73 871
73 881
73 892
73 898
73 899
73 980
73 984
73 1014
73 1025
73 1054
73 1056
73 1090
73 1091
73 1109
73 1112
73 1161
73 1166
73 1170
73 1212
73 1226
73 1230
73 1236
73 1274
73 1279
73 1288
73 1289
73 1295
73 1312
73 1314
73 1319
73 1321
73 1371
73 1378
74 84
74 89
74 117
74 163
74 170
74 195
74 199
74 201
74 227
74 251
74 316
74 320
74 328
74 364
74 396
74 439
74 450
74 477
74 498
74 513
74 520
74 535
74 542
74 599
74 658
74 745
74 760
74 779
74 842
74 864
74 871
74 934
74 940
74 980
74 987
74 1019
74 1025
74 1049
74 1051
74 1054
74 1058
74 1095
74 1109
74 1166
74 1184
74 1258
74 1274
74 1314
74 1321
74 1338
74 1348
74 1360
75 417
75 975
75 1195
76 345
76 464
76 472
76 692
76 884
77 138
77 139
77 172
77 176
77 180
77 199
77 203
77 204
77 234
77 251
77 263
77 320
77 346
77 367
77 375
77 402
77 439
77 465
77 479
77 498
77 503
77 540
77 561
77 593
77 608
77 614
77 615
77 625
77 663
77 753
77 794
77 801
77 821
77 842
77 847
77 871
77 872
77 905
77 981
77 987
77 1048
77 1055
77 1099
77 1112
77 1132
77 1161
77 1185
77 1204
77 1208
77 1217
77 1226
77 1236
77 1253
77 1258
77 1270
77 1271
77 1288
77 1291
77 1321
77 1338
77 1348
77 1371
78 81
78 137
78 193
78 348
78 399
78 452
78 492
78 534
78 546
78 875
78 1050
78 1245
78 1335
79 133
79 149
79 263
79 268
79 284
79 326
79 346
79 367
79 384
79 391
79 396
79 439
79 477
79 482
79 503
79 506
79 547
79 594
79 599
79 601
79 602
79 608
79 614
79 669
79 690
79 704
79 753
79 812
79 925
79 948
79 1019
79 1031
79 1109
79 1117
79 1125
79 1132
79 1195
79 1258
79 1291
80 113
80 166
80 199
80 221
80 312
80 332
80 428
80 482
80 490
80 551
80 568
80 593
80 799
80 801
80 820
80 864
80 1048
80 1145
80 1146
80 1186
80 1208
80 1212
80 1258
80 1270
80 1312
80 1362
80 1383
81 105
81 107
81 155
81 348
81 354
81 377
81 399
81 472
81 548
81 670
81 672
81 689
81 692
81 747
81 896
81 1049
81 1250
81 1256
82 394
82 536
82 613
82 638
82 696
82 724
82 1071
82 1238
83 91
83 634
83 1220
83 1290
83 1297
84 351
84 364
84 379
84 578
84 722
84 765
84 850
84 869
85 99
85 175
85 189
85 413
85 642
85 776
85 788
85 921
85 1386
86 94
86 126
86 138
86 139
86 163
86 201
86 275
86 293
86 320
86 325
86 332
86 346
86 372
86 461
86 478
86 540
86 575
86 577
86 602
86 604
86 625
86 691
86 704
86 753
86 763
86 779
86 799
86 812
86 819
86 872
86 922
86 974
86 975
86 984
86 1019
86 1035
86 1051
86 1085
86 1097
86 1109
86 1112
86 1119
86 1148
86 1161
86 1162
86 1169
86 1195
86 1217
86 1234
86 1241
86 1271
86 1283
86 1289
86 1312
86 1338
87 95
87 156
87 238
87 283
87 715
87 883
87 915
87 1201
87 1313
88 106
88 114
88 161
88 276
88 361
88 395
88 410
88 634
88 789
88 920
88 1029
88 1089
88 1131
88 1187
88 1262
88 1290
88 1395
89 269
89 544
89 890
89 908
89 996
89 1095
90 189
90 196
90 208
90 243
90 306
90 335
90 405
90 442
90 452
90 473
90 590
90 958
90 1207
90 1221
90 1300
90 1335
90 1386
91 107
91 155
91 580
91 586
91 616
91 626
91 829
91 894
91 913
91 926
91 985
91 1084
91 1220
91 1297
91 1347
91 1382
92 137
92 147
92 187
92 216
92 282
92 353
92 407
92 458
92 472
92 558
92 668
92 692
92 702
92 859
92 967
92 1050
92 1113
92 1269
92 1276
92 1359
93 133
93 134
93 148
93 149
93 165
93 172
93 198
93 199
93 201
93 251
93 254
93 261
93 293
93 346
93 352
93 384
93 429
93 468
93 490
93 494
93 599
93 615
93 745
93 755
93 782
93 790
93 799
93 801
93 812
93 836
93 888
93 905
93 934
93 945
93 981
93 987
93 1007
93 1031
93 1054
93 1090
93 1093
93 1117
93 1119
93 1161
93 1162
93 1170
93 1185
93 1189
93 1195
93 1271
93 1279
93 1283
93 1324
93 1383
94 133
94 199
94 201
94 221
94 251
94 268
94 331
94 341
94 375
94 396
94 397
94 402
94 490
94 498
94 540
94 615
94 704
94 718
94 755
94 778
94 779
94 781
94 794
94 819
94 864
94 888
94 962
94 975
94 984
94 1014
94 1035
94 1054
94 1091
94 1102
94 1109
94 1111
94 1112
94 1145
94 1146
94 1166
94 1169
94 1185
94 1186
94 1208
94 1217
94 1236
94 1270
94 1295
94 1388
95 156
95 283
95 328
95 542
95 548
95 797
95 1157
95 1201
95 1250
95 1296
95 1313
95 1389
96 151
96 393
96 712
96 720
96 808
96 932
96 990
96 1029
96 1089
96 1239
96 1289
96 1375
96 1394
97 322
97 408
97 706
97 711
97 732
97 804
97 927
97 947
97 973
97 997
97 1070
97 1353
97 1355
98 191
98 280
98 301
98 337
98 363
98 559
98 563
98 863
98 887
98 920
98 1030
98 1150
98 1395
99 170
99 175
99 319
99 450
99 647
99 717
99 776
99 953
99 1153
99 1257
100 617
100 731
100 852
100 942
100 1367
101 465
101 521
101 960
102 192
102 236
102 307
102 322
102 345
102 349
102 660
102 726
102 797
102 800
102 884
102 927
102 938
102 1003
102 1052
102 1108
102 1181
102 1194
102 1196
102 1296
102 1315
103 196
103 208
103 217
103 230
103 294
103 552
103 565
103 572
103 732
103 856
103 982
103 988
103 997
103 1001
103 1100
103 1179
103 1392
104 234
104 254
104 341
104 456
104 892
104 899
104 934
104 1102
105 171
105 206
105 211
105 213
105 256
105 336
105 348
105 377
105 420
105 427
105 541
105 556
105 582
105 726
105 736
105 740
105 886
105 918
105 1000
105 1009
105 1151
105 1178
105 1219
105 1315
105 1328
105 1365
105 1393
106 161
106 173
106 395
106 1223
107 131
107 152
107 155
107 348
107 480
107 563
107 702
107 709
107 783
107 789
107 796
107 846
107 859
107 863
107 1032
107 1046
107 1075
107 1081
107 1167
107 1210
107 1262
107 1297
108 530
108 721
108 939
108 1198
108 1311
109 115
109 179
109 186
109 481
109 514
109 634
109 672
109 689
109 900
109 936
109 1087
109 1101
109 1153
109 1182
109 1205
109 1282
109 1290
109 1327
109 1358
110 289
110 368
110 381
110 1053
110 1164
111 174
111 392
111 438
111 444
111 451
111 619
111 777
111 796
111 807
111 846
111 957
111 1003
111 1052
111 1114
111 1139
112 235
112 245
112 983
112 996
112 1222
112 1232
112 1235
113 117
113 172
113 254
113 275
113 352
113 562
113 888
113 1047
113 1146
113 1204
113 1217
114 161
114 168
114 226
114 276
114 410
114 611
114 712
114 897
114 936
114 1036
114 1037
114 1187
114 1202
114 1228
114 1289
114 1327
115 228
115 244
115 302
115 305
115 406
115 652
115 727
115 775
115 793
115 900
115 914
115 928
115 1087
115 1301
115 1377
116 195
116 575
117 138
117 172
117 198
117 221
117 254
117 258
117 277
117 284
117 331
117 372
117 374
117 384
117 391
117 397
117 456
117 478
117 479
117 482
117 490
117 494
117 503
117 535
117 584
117 596
117 603
117 608
117 625
117 663
117 683
117 691
117 801
117 892
117 907
117 934
117 945
117 1019
117 1058
117 1093
117 1097
117 1111
117 1145
117 1186
117 1189
117 1195
117 1208
117 1226
117 1241
117 1270
117 1274
117 1283
117 1295
117 1356
117 1378
117 1388
118 239
118 376
118 447
118 694
118 702
118 830
118 859
118 861
118 894
118 913
118 961
118 1068
118 1387
119 223
119 378
119 530
119 1198
119 1309
120 369
120 489
120 515
120 538
120 549
120 1205
120 1206
120 1243
120 1282
121 938
121 1135
121 1196
121 1224
121 1268
122 123
122 403
122 693
122 734
122 933
122 1013
122 1083
122 1255
123 230
123 340
123 441
123 511
123 533
123 566
123 572
123 597
123 672
123 689
123 693
123 839
123 869
123 938
123 1083
123 1196
123 1255
123 1259
123 1351
124 168
124 330
124 470
124 481
124 628
124 640
124 829
124 926
124 963
124 1016
124 1036
124 1079
124 1110
124 1153
124 1358
124 1368
125 421
125 520
125 628
125 654
125 678
125 705
125 825
125 834
125 1040
125 1077
125 1106
125 1108
125 1144
125 1181
125 1280
125 1368
126 165
126 166
126 201
126 312
126 325
126 326
126 359
126 388
126 396
126 428
126 457
126 468
126 478
126 479
126 490
126 498
126 503
126 521
126 577
126 602
126 607
126 688
126 690
126 691
126 704
126 753
126 759
126 763
126 779
126 801
126 812
126 905
126 949
126 960
126 986
126 987
126 1014
126 1055
126 1096
126 1104
126 1109
126 1119
126 1148
126 1177
126 1189
126 1195
126 1212
126 1217
126 1258
126 1274
126 1295
127 311
127 405
127 539
127 559
127 606
127 972
127 1030
127 1221
128 288
128 579
128 662
128 879
128 894
128 913
128 964
128 1137
128 1345
129 143
129 156
129 162
129 242
129 276
129 370
129 410
129 426
129 678
129 706
129 717
129 775
129 825
129 928
129 1003
129 1012
129 1024
129 1040
129 1052
129 1144
129 1149
129 1201
129 1264
129 1353
130 141
130 233
130 247
130 336
130 413
130 497
130 642
130 658
130 740
130 797
130 906
130 1026
130 1296
131 155
131 264
131 386
131 392
131 398
131 418
131 522
131 537
131 682
131 760
131 893
131 957
131 1038
131 1210
131 1350
132 164
132 340
132 530
132 533
132 582
132 1009
132 1198
132 1310
133 138
133 149
133 172
133 254
133 263
133 325
133 375
133 384
133 388
133 456
133 461
133 478
133 540
133 575
133 599
133 618
133 658
133 663
133 691
133 745
133 753
133 759
133 779
133 781
133 799
133 821
133 836
133 842
133 864
133 888
133 895
133 905
133 907
133 925
133 948
133 952
133 980
133 986
133 1093
133 1097
133 1102
133 1109
133 1116
133 1119
133 1132
133 1170
133 1185
133 1195
133 1236
133 1253
133 1288
133 1356
133 1373
133 1381
133 1383
134 176
134 203
134 204
134 231
134 261
134 391
134 396
134 434
134 456
134 513
134 577
134 594
134 625
134 658
134 683
134 790
134 895
134 899
134 925
134 948
134 962
134 975
134 976
134 1031
134 1058
134 1090
134 1161
134 1169
134 1177
134 1217
134 1253
134 1274
134 1288
134 1319
135 252
135 697
135 699
135 965
135 1005
135 1136
135 1337
136 284
136 312
136 683
136 907
136 1159
136 1295
136 1339
136 1371
137 399
137 662
137 879
137 1050
137 1292
137 1370
138 199
138 261
138 268
138 275
138 346
138 352
138 384
138 457
138 478
138 490
138 506
138 545
138 568
138 574
138 601
138 644
138 683
138 812
138 925
138 984
138 1025
138 1035
138 1047
138 1097
138 1119
138 1159
138 1162
138 1185
138 1274
138 1291
138 1295
138 1356
139 199
139 253
139 284
139 326
139 375
139 388
139 429
139 465
139 468
139 479
139 523
139 561
139 562
139 574
139 577
139 593
139 599
139 604
139 625
139 683
139 751
139 753
139 779
139 790
139 794
139 871
139 872
139 888
139 892
139 905
139 907
139 960
139 974
139 1019
139 1048
139 1085
139 1091
139 1104
139 1117
139 1119
139 1125
139 1234
139 1270
139 1279
139 1288
139 1295
139 1321
139 1324
139 1348
139 1356
139 1371
139 1378
140 197
140 235
140 340
140 533
140 552
140 600
140 632
140 639
140 676
140 709
140 729
140 852
140 870
140 911
140 932
140 1001
140 1029
140 1060
140 1089
140 1167
140 1172
140 1222
140 1367
140 1394
141 170
141 247
141 264
141 309
141 450
141 452
141 495
141 658
141 760
141 856
141 862
141 906
141 988
141 996
141 1026
141 1318
141 1335
141 1350
142 490
142 794
142 1177
143 162
143 421
143 480
143 516
143 699
143 813
143 965
143 1024
143 1046
143 1064
143 1077
143 1098
143 1115
143 1124
143 1266
143 1332
144 184
144 192
144 292
144 678
144 695
144 762
144 796
144 817
144 846
144 853
144 856
144 901
144 988
144 991
144 1040
144 1194
144 1322
145 165
145 537
145 544
145 682
145 908
145 1080
145 1121
145 1246
146 171
146 235
146 543
146 789
146 886
146 969
146 1222
146 1262
146 1390
147 276
147 345
147 403
147 410
147 752
147 823
147 884
147 979
147 1013
147 1113
147 1325
148 221
148 275
148 293
148 332
148 397
148 468
148 612
148 614
148 625
148 663
148 703
148 779
148 844
148 888
148 975
148 984
148 1093
148 1123
148 1199
148 1270
148 1321
148 1383
149 169
149 172
149 180
149 195
149 199
149 201
149 227
149 231
149 234
149 251
149 258
149 266
149 275
149 284
149 312
149 359
149 384
149 429
149 461
149 465
149 494
149 523
149 535
149 604
149 612
149 614
149 644
149 669
149 683
149 704
149 774
149 819
149 842
149 872
149 888
149 898
149 934
149 945
149 974
149 975
149 981
149 984
149 1019
149 1047
149 1096
149 1116
149 1186
149 1208
149 1236
149 1253
149 1283
149 1319
149 1348
150 211
150 226
150 360
150 415
150 480
150 526
150 541
150 935
150 1037
150 1046
150 1160
150 1192
150 1304
151 217
151 393
151 436
151 452
151 565
151 635
151 641
151 697
151 832
151 858
151 867
151 931
151 1082
151 1088
151 1265
151 1275
151 1335
151 1374
151 1375
152 155
152 235
152 471
152 622
152 717
152 1222
153 440
153 981
153 1170
154 583
154 932
154 1003
154 1052
154 1394
155 348
155 480
155 563
155 702
155 709
155 783
155 789
155 796
155 846
155 859
155 863
155 1032
155 1046
155 1075
155 1081
155 1167
155 1210
155 1262
155 1297
156 280
156 283
156 354
156 605
156 727
156 938
156 1024
156 1150
156 1196
156 1201
156 1286
156 1301
156 1313
157 702
157 859
157 1238
157 1385
158 819
158 1184
158 1295
159 317
159 327
159 328
159 385
159 463
159 466
159 531
159 542
159 680
159 687
159 714
159 766
159 843
159 854
159 970
159 1057
159 1098
159 1124
159 1298
159 1344
160 218
160 448
160 462
160 638
160 643
160 659
160 950
160 1020
160 1071
161 276
161 361
161 395
161 410
161 634
161 789
161 920
161 1029
161 1089
161 1131
161 1187
161 1262
161 1290
161 1395
162 421
162 480
162 516
162 699
162 813
162 965
162 1024
162 1046
162 1064
162 1077
162 1098
162 1115
162 1124
162 1266
162 1332
163 201
163 204
163 231
163 234
163 248
163 258
163 277
163 284
163 312
163 359
163 367
163 384
163 402
163 417
163 477
163 478
163 523
163 540
163 545
163 568
163 574
163 601
163 610
163 614
163 615
163 625
163 658
163 669
163 690
163 753
163 790
163 794
163 799
163 801
163 819
163 836
163 837
163 842
163 844
163 872
163 892
163 907
163 922
163 952
163 987
163 1019
163 1025
163 1073
163 1090
163 1093
163 1104
163 1116
163 1126
163 1142
163 1146
163 1169
163 1195
163 1217
163 1230
163 1274
163 1295
163 1312
163 1314
163 1356
163 1378
163 1383
164 340
164 530
164 533
164 582
164 1009
164 1198
164 1310
165 263
165 575
165 614
165 625
165 631
165 658
165 756
165 812
165 871
165 872
165 981
165 987
165 1031
165 1099
165 1117
165 1119
165 1159
165 1169
165 1246
165 1258
165 1319
165 1338
165 1388
166 176
166 180
166 222
166 263
166 277
166 284
166 315
166 320
166 352
166 384
166 388
166 434
166 439
166 465
166 478
166 482
166 490
166 513
166 521
166 584
166 599
166 604
166 608
166 614
166 615
166 683
166 691
166 759
166 812
166 815
166 836
166 847
166 872
166 888
166 934
166 940
166 960
166 975
166 987
166 1025
166 1051
166 1116
166 1159
166 1162
166 1169
166 1170
166 1217
166 1230
166 1253
166 1270
166 1271
166 1324
166 1338
166 1383
167 190
167 286
167 290
167 340
167 343
167 453
167 487
167 533
167 662
167 672
167 689
167 720
167 730
167 743
167 808
167 829
167 879
167 926
167 996
167 1299
168 319
168 567
168 570
168 657
168 841
168 938
168 996
168 1016
168 1028
168 1036
168 1039
168 1049
168 1067
168 1187
168 1196
168 1257
168 1354
169 198
169 199
169 241
169 325
169 332
169 397
169 479
169 540
169 574
169 602
169 604
169 608
169 612
169 663
169 781
169 819
169 892
169 925
169 948
169 1019
169 1047
169 1051
169 1085
169 1111
169 1117
169 1270
169 1303
170 193
170 214
170 290
170 307
170 358
170 427
170 450
170 534
170 660
170 710
170 722
170 730
170 765
170 776
170 831
170 860
170 869
170 1026
170 1041
170 1328
171 182
171 377
171 530
171 658
171 670
171 811
171 886
171 896
171 969
171 985
171 1041
171 1084
171 1198
171 1289
172 261
172 266
172 284
172 293
172 326
172 346
172 357
172 369
172 396
172 420
172 465
172 494
172 521
172 574
172 575
172 584
172 599
172 669
172 704
172 718
172 745
172 789
172 790
172 812
172 871
172 872
172 918
172 981
172 984
172 1019
172 1025
172 1031
172 1035
172 1048
172 1054
172 1111
172 1112
172 1152
172 1169
172 1177
172 1212
172 1243
172 1262
172 1283
172 1333
172 1338
172 1383
173 191
173 194
173 338
173 387
173 395
173 421
173 451
173 500
173 550
173 605
173 619
173 629
173 664
173 681
173 803
173 866
173 887
173 916
173 1041
173 1077
173 1092
173 1191
173 1223
173 1286
173 1369
174 697
174 777
174 1114
175 189
175 413
175 642
175 776
175 788
175 921
175 1386
176 199
176 222
176 234
176 263
176 268
176 275
176 346
176 352
176 372
176 461
176 475
176 478
176 498
176 521
176 523
176 568
176 615
176 644
176 718
176 745
176 755
176 759
176 791
176 820
176 821
176 892
176 898
176 905
176 907
176 945
176 974
176 975
176 986
176 1025
176 1056
176 1102
176 1111
176 1148
176 1177
176 1195
176 1199
176 1217
176 1271
177 180
177 331
177 1177
178 246
178 256
178 317
178 400
178 773
178 814
178 1174
178 1344
178 1393
179 264
179 289
179 505
179 553
179 585
179 620
179 641
179 647
179 849
179 875
179 877
179 900
179 953
179 1101
179 1164
179 1245
179 1265
179 1305
179 1350
180 268
180 293
180 350
180 352
180 465
180 614
180 923
180 1031
180 1058
180 1093
180 1109
180 1159
180 1169
180 1189
180 1208
180 1362
181 216
181 281
181 591
181 1267
181 1269
182 294
182 297
182 300
182 510
182 527
182 543
182 729
182 736
182 811
182 886
182 1100
182 1178
182 1215
182 1390
183 236
183 487
183 519
183 544
183 800
183 908
183 912
183 1041
183 1153
183 1299
183 1323
184 582
184 656
184 817
184 858
184 906
184 991
184 1009
184 1251
184 1260
184 1275
184 1289
184 1364
185 194
185 288
185 328
185 342
185 452
185 542
185 806
185 1062
185 1137
185 1191
185 1307
185 1335
185 1380
186 233
186 278
186 360
186 497
186 630
186 900
186 977
186 1044
186 1105
186 1182
186 1192
186 1209
187 306
187 668
187 767
187 1147
187 1277
187 1300
188 345
188 653
188 655
188 738
188 884
188 959
188 1103
188 1396
189 306
189 442
189 702
189 859
189 1005
189 1300
189 1337
189 1386
190 286
190 336
190 419
190 453
190 501
190 670
190 678
190 695
190 733
190 740
190 762
190 882
190 896
190 1040
190 1157
190 1203
190 1205
190 1282
190 1293
190 1389
191 207
191 211
191 213
191 363
191 392
191 471
191 505
191 541
191 544
191 556
191 559
191 622
191 637
191 640
191 877
191 887
191 908
191 957
191 963
191 1030
191 1154
191 1197
191 1223
191 1292
191 1330
191 1370
192 301
192 305
192 337
192 342
192 349
192 406
192 484
192 496
192 595
192 761
192 818
192 983
192 991
192 1049
192 1129
192 1194
192 1232
192 1334
192 1372
192 1380
193 399
193 432
193 450
193 525
193 534
194 289
194 307
194 660
194 806
194 1041
194 1118
194 1164
194 1191
194 1223
195 198
195 201
195 222
195 268
195 312
195 326
195 355
195 372
195 417
195 521
195 523
195 535
195 540
195 615
195 663
195 753
195 782
195 812
195 819
195 892
195 895
195 905
195 907
195 975
195 1019
195 1025
195 1058
195 1085
195 1090
195 1096
195 1099
195 1119
195 1125
195 1169
195 1208
195 1212
195 1217
195 1274
195 1314
195 1381
196 208
196 239
196 327
196 392
196 442
196 466
196 732
196 957
196 997
196 1068
196 1392
197 239
197 508
197 639
197 676
197 677
197 1041
197 1068
198 201
198 258
198 268
198 275
198 331
198 352
198 374
198 384
198 388
198 434
198 439
198 455
198 468
198 478
198 490
198 498
198 506
198 562
198 575
198 596
198 599
198 604
198 625
198 644
198 691
198 745
198 757
198 759
198 763
198 779
198 794
198 812
198 871
198 881
198 888
198 892
198 895
198 905
198 907
198 923
198 948
198 960
198 974
198 984
198 1048
198 1054
198 1085
198 1091
198 1102
198 1109
198 1112
198 1122
198 1159
198 1161
198 1170
198 1199
198 1258
198 1271
198 1283
198 1288
198 1295
198 1314
198 1319
198 1324
198 1338
198 1343
198 1348
198 1373
198 1381
199 221
199 222
199 231
199 258
199 312
199 331
199 341
199 375
199 384
199 388
199 396
199 455
199 490
199 494
199 498
199 523
199 545
199 562
199 581
199 599
199 601
199 604
199 608
199 683
199 704
199 718
199 753
199 790
199 794
199 799
199 872
199 888
199 934
199 980
199 981
199 987
199 1019
199 1056
199 1058
199 1085
199 1097
199 1146
199 1169
199 1186
199 1226
199 1258
199 1270
199 1288
199 1291
199 1314
199 1319
199 1338
199 1352
200 203
200 248
200 268
200 417
200 477
200 718
200 1319
201 248
201 258
201 367
201 397
201 498
201 521
201 561
201 593
201 604
201 779
201 791
201 812
201 819
201 871
201 892
201 925
201 930
201 934
201 1236
201 1241
201 1319
201 1324
201 1388
202 225
202 768
202 787
202 861
202 961
203 221
203 222
203 227
203 253
203 268
203 277
203 284
203 315
203 325
203 346
203 396
203 434
203 456
203 461
203 468
203 478
203 490
203 503
203 512
203 523
203 562
203 574
203 575
203 601
203 608
203 625
203 631
203 688
203 691
203 819
203 871
203 925
203 948
203 974
203 981
203 1007
203 1019
203 1031
203 1048
203 1085
203 1091
203 1109
203 1112
203 1123
203 1125
203 1148
203 1166
203 1170
203 1189
203 1199
203 1212
203 1258
203 1270
203 1271
203 1279
203 1312
203 1314
203 1356
203 1381
203 1383
204 253
204 263
204 277
204 284
204 293
204 331
204 332
204 384
204 391
204 457
204 465
204 475
204 477
204 490
204 551
204 596
204 683
204 759
204 763
204 774
204 791
204 819
204 871
204 899
204 980
204 981
204 1019
204 1074
204 1104
204 1109
204 1125
204 1145
204 1148
204 1152
204 1169
204 1177
204 1195
204 1217
204 1271
204 1295
204 1321
204 1383
205 242
205 311
205 539
205 1011
205 1264
206 377
206 518
206 552
206 576
206 630
206 795
206 858
206 874
206 1001
206 1151
206 1209
206 1275
207 725
207 887
207 1197
207 1391
208 239
208 327
208 392
208 442
208 466
208 732
208 957
208 997
208 1068
208 1392
209 305
209 335
209 351
209 356
209 361
209 406
209 605
209 637
209 804
209 850
209 958
209 1131
209 1154
209 1168
209 1286
209 1326
209 1355
210 319
210 425
210 1244
210 1257
210 1316
211 377
211 491
211 524
211 525
211 541
211 600
211 632
211 638
211 650
211 729
211 835
211 873
211 887
211 1000
211 1071
211 1098
211 1124
211 1219
211 1229
211 1304
212 264
212 366
212 785
212 1214
212 1350
213 369
213 373
213 377
213 379
213 415
213 528
213 556
213 578
213 707
213 709
213 715
213 723
213 867
213 883
213 887
213 1000
213 1041
213 1160
213 1167
213 1219
213 1243
213 1374
214 450
214 517
214 606
214 699
214 798
214 831
214 919
214 965
214 1188
214 1329
215 580
215 586
215 680
215 709
215 742
215 833
215 854
215 1167
215 1320
216 281
216 308
216 579
216 828
216 1269
216 1345
217 224
217 393
217 565
217 1043
217 1108
217 1181
217 1392
218 260
218 314
218 411
218 427
218 432
218 462
218 524
218 544
218 626
218 630
218 747
218 908
218 1002
218 1020
218 1135
218 1175
218 1180
218 1209
218 1229
218 1256
218 1268
218 1328
218 1347
219 365
219 433
219 438
219 750
219 909
219 1032
219 1066
219 1081
219 1139
220 271
220 424
220 999
220 1032
220 1081
221 293
221 312
221 388
221 391
221 461
221 562
221 608
221 658
221 864
221 892
221 905
221 1096
221 1161
221 1258
221 1295
221 1338
221 1373
221 1378
222 254
222 261
222 332
222 341
222 456
222 461
222 465
222 479
222 490
222 521
222 545
222 551
222 584
222 593
222 612
222 644
222 663
222 691
222 755
222 781
222 799
222 801
222 892
222 905
222 907
222 923
222 945
222 960
222 962
222 974
222 987
222 1051
222 1085
222 1091
222 1097
222 1109
222 1145
222 1146
222 1159
222 1169
222 1177
222 1189
222 1195
222 1208
222 1212
222 1217
222 1236
222 1271
222 1274
222 1283
222 1291
222 1339
222 1373
222 1383
223 378
223 789
223 1262
223 1309
224 369
224 565
224 882
224 1000
224 1043
224 1219
224 1243
224 1293
225 300
225 370
225 401
225 426
225 768
225 787
225 1252
226 1032
226 1037
226 1081
226 1082
226 1088
226 1187
226 1238
226 1260
226 1304
226 1364
227 231
227 261
227 268
227 273
227 312
227 341
227 388
227 434
227 456
227 465
227 468
227 490
227 498
227 551
227 574
227 575
227 625
227 718
227 753
227 790
227 821
227 836
227 842
227 922
227 974
227 1035
227 1085
227 1109
227 1117
227 1125
227 1126
227 1159
227 1166
227 1169
227 1177
227 1186
227 1195
227 1212
227 1226
227 1236
227 1258
227 1270
227 1314
227 1321
227 1339
227 1348
227 1373
228 425
228 519
228 571
228 775
228 856
228 912
228 914
228 928
228 988
228 1087
228 1238
228 1244
228 1308
228 1336
228 1361
229 596
229 1271
230 370
230 400
230 415
230 426
230 517
230 572
230 827
230 990
230 1138
230 1160
230 1174
230 1239
230 1392
231 293
231 320
231 326
231 341
231 367
231 374
231 402
231 417
231 465
231 498
231 562
231 573
231 593
231 602
231 603
231 665
231 669
231 683
231 691
231 704
231 745
231 755
231 812
231 820
231 821
231 836
231 864
231 888
231 892
231 895
231 898
231 899
231 976
231 984
231 986
231 1019
231 1058
231 1093
231 1117
231 1119
231 1126
231 1130
231 1169
231 1185
231 1186
231 1204
231 1289
231 1291
231 1295
231 1319
231 1378
231 1381
232 882
232 1064
232 1143
232 1266
232 1293
233 247
233 497
233 623
233 897
233 966
233 1182
233 1228
234 248
234 254
234 258
234 284
234 325
234 374
234 391
234 402
234 456
234 457
234 490
234 551
234 561
234 574
234 608
234 644
234 658
234 691
234 751
234 759
234 779
234 812
234 819
234 836
234 925
234 962
234 980
234 981
234 987
234 1031
234 1054
234 1090
234 1093
234 1170
234 1226
234 1234
234 1362
235 239
235 255
235 279
235 310
235 489
235 537
235 671
235 676
235 681
235 682
235 722
235 764
235 765
235 784
235 882
235 916
235 941
235 969
235 1068
235 1206
235 1222
235 1293
236 349
236 386
236 522
236 585
236 620
236 800
236 822
236 1006
236 1041
236 1323
237 641
237 679
237 722
237 726
237 765
237 1018
237 1133
237 1265
237 1315
238 282
238 641
238 796
238 846
238 915
238 1265
238 1276
238 1313
239 639
239 686
239 706
239 746
239 752
239 868
239 955
239 1068
239 1222
239 1325
239 1353
239 1387
240 285
240 469
240 566
240 1259
240 1349
241 478
241 545
241 614
241 615
241 644
241 1056
241 1116
241 1119
242 264
242 654
242 695
242 762
242 834
242 1011
242 1024
242 1264
242 1350
243 244
243 300
243 329
243 442
243 590
243 600
243 632
243 793
243 853
243 901
243 1218
244 401
244 422
244 590
244 662
244 712
244 747
244 793
244 879
244 996
244 1080
244 1087
244 1103
244 1121
244 1252
244 1256
244 1289
244 1396
245 714
245 1235
246 376
246 447
246 773
246 814
246 1049
246 1238
247 336
247 413
247 497
247 642
247 658
247 740
247 797
247 906
247 1026
247 1296
248 251
248 258
248 262
248 275
248 320
248 326
248 331
248 346
248 350
248 352
248 367
248 372
248 388
248 396
248 429
248 465
248 561
248 574
248 601
248 604
248 607
248 612
248 644
248 658
248 663
248 691
248 745
248 755
248 757
248 763
248 821
248 844
248 864
248 872
248 892
248 895
248 929
248 940
248 984
248 1019
248 1048
248 1125
248 1132
248 1145
248 1161
248 1169
248 1208
248 1212
248 1217
248 1234
248 1270
248 1271
248 1283
248 1303
248 1321
248 1324
248 1339
248 1371
249 344
249 382
249 437
249 472
249 692
250 311
250 438
250 491
250 529
250 539
250 645
250 873
250 1139
250 1155
251 254
251 284
251 320
251 355
251 388
251 397
251 429
251 439
251 445
251 468
251 523
251 535
251 599
251 683
251 688
251 925
251 981
251 1025
251 1085
251 1104
251 1125
251 1146
251 1186
251 1217
251 1295
251 1324
251 1339
251 1383
252 299
252 517
252 532
252 1005
252 1136
252 1337
253 374
253 490
253 614
253 669
253 799
253 842
253 872
253 892
253 905
253 1093
253 1111
253 1159
254 263
254 332
254 341
254 346
254 367
254 478
254 483
254 490
254 503
254 512
254 513
254 523
254 562
254 596
254 603
254 604
254 759
254 779
254 892
254 895
254 923
254 960
254 1085
254 1112
254 1204
254 1212
254 1236
254 1288
254 1291
254 1314
254 1348
254 1356
254 1378
255 510
255 527
255 591
255 894
255 913
255 1222
255 1267
256 296
256 377
256 379
256 444
256 517
256 578
256 653
256 694
256 807
256 814
256 830
256 959
256 1128
256 1393
257 288
257 324
257 385
257 531
257 767
257 903
257 1137
257 1141
258 284
258 293
258 320
258 352
258 478
258 498
258 521
258 523
258 599
258 658
258 683
258 691
258 753
258 763
258 836
258 842
258 844
258 895
258 976
258 1025
258 1031
258 1090
258 1097
258 1146
258 1186
258 1195
258 1204
258 1217
258 1230
258 1234
258 1241
258 1258
258 1291
258 1314
258 1338
258 1388
259 362
259 472
259 514
259 530
259 552
259 650
259 692
259 694
259 699
259 790
259 830
259 835
259 937
259 938
259 965
259 1001
259 1196
259 1198
259 1289
260 280
260 411
260 462
260 508
260 677
260 1150
260 1308
260 1336
261 325
261 402
261 430
261 461
261 490
261 494
261 498
261 540
261 551
261 562
261 593
261 601
261 644
261 690
261 753
261 759
261 790
261 794
261 844
261 872
261 925
261 962
261 984
261 1025
261 1031
261 1056
261 1091
261 1109
261 1111
261 1112
261 1117
261 1119
261 1148
261 1195
261 1204
261 1212
261 1271
261 1283
261 1319
261 1356
261 1371
261 1373
261 1383
262 429
262 552
262 567
262 593
262 841
262 1001
262 1093
262 1152
262 1217
262 1270
263 275
263 320
263 325
263 352
263 359
263 434
263 461
263 490
263 521
263 523
263 540
263 581
263 601
263 801
263 820
263 821
263 905
263 923
263 974
263 980
263 1031
263 1048
263 1058
263 1091
263 1096
263 1097
263 1117
263 1125
263 1177
263 1204
263 1208
263 1212
263 1226
263 1274
263 1288
263 1289
264 366
264 382
264 437
264 977
264 1026
264 1044
264 1092
264 1101
264 1210
264 1264
264 1350
264 1369
265 304
265 530
265 654
265 834
265 1198
266 346
266 397
266 457
266 475
266 494
266 718
266 820
266 864
266 888
266 984
266 986
266 1051
266 1093
266 1096
266 1099
266 1145
266 1177
266 1186
266 1227
266 1270
266 1274
267 591
267 606
267 706
267 805
267 1267
267 1292
267 1353
267 1370
268 312
268 320
268 346
268 355
268 372
268 388
268 396
268 402
268 457
268 468
268 477
268 478
268 479
268 490
268 540
268 561
268 599
268 601
268 603
268 607
268 608
268 683
268 691
268 745
268 751
268 821
268 836
268 864
268 871
268 895
268 922
268 934
268 960
268 987
268 1035
268 1048
268 1054
268 1109
268 1112
268 1116
268 1132
268 1148
268 1162
268 1189
268 1195
268 1208
268 1226
268 1283
268 1291
268 1362
268 1378
268 1383
268 1388
269 641
269 729
269 798
269 919
269 945
269 1095
269 1265
270 403
270 566
270 567
270 734
270 841
270 933
270 1013
270 1259
270 1272
271 290
271 424
271 730
271 741
271 822
271 902
271 999
271 1006
272 387
272 485
272 550
272 695
272 729
272 762
272 1330
273 658
274 748
274 1062
274 1080
274 1103
274 1121
274 1307
274 1396
274 1397
275 312
275 320
275 375
275 434
275 439
275 455
275 479
275 490
275 494
275 523
275 562
275 608
275 625
275 663
275 718
275 779
275 801
275 847
275 907
275 940
275 952
275 984
275 1019
275 1047
275 1161
275 1169
275 1170
275 1189
275 1204
275 1258
275 1261
275 1271
275 1279
275 1343
275 1356
275 1383
276 410
276 685
276 862
276 1024
276 1113
276 1120
276 1171
276 1187
276 1238
276 1318
276 1376
277 332
277 367
277 384
277 434
277 478
277 513
277 540
277 545
277 596
277 607
277 608
277 612
277 658
277 669
277 691
277 779
277 821
277 847
277 871
277 888
277 980
277 984
277 986
277 1048
277 1054
277 1085
277 1096
277 1097
277 1119
277 1123
277 1161
277 1204
277 1208
277 1226
277 1258
277 1274
277 1291
277 1319
277 1324
277 1339
277 1348
277 1378
278 354
278 361
278 470
278 559
278 654
278 715
278 834
278 856
278 861
278 883
278 961
278 988
278 1030
278 1079
278 1105
278 1131
278 1182
278 1308
278 1336
279 357
279 405
279 427
279 671
279 838
279 840
279 845
279 857
279 938
279 1196
279 1221
279 1222
279 1328
279 1333
280 363
280 411
280 443
280 816
280 1150
280 1188
280 1201
280 1329
281 591
281 1267
281 1269
282 328
282 542
282 580
282 586
282 915
282 998
282 1082
282 1088
282 1276
283 328
283 542
283 548
283 797
283 1157
283 1201
283 1250
283 1296
283 1313
283 1389
284 341
284 346
284 367
284 388
284 396
284 457
284 465
284 503
284 551
284 562
284 568
284 573
284 574
284 577
284 607
284 608
284 614
284 625
284 658
284 739
284 751
284 759
284 794
284 799
284 819
284 871
284 872
284 898
284 934
284 987
284 1019
284 1031
284 1033
284 1047
284 1051
284 1056
284 1078
284 1086
284 1093
284 1097
284 1099
284 1123
284 1125
284 1148
284 1159
284 1177
284 1195
284 1226
284 1230
284 1263
284 1271
284 1288
284 1289
284 1295
284 1362
285 469
285 566
285 1259
285 1349
286 336
286 419
286 453
286 501
286 670
286 678
286 695
286 733
286 740
286 762
286 882
286 896
286 1040
286 1157
286 1203
286 1205
286 1282
286 1293
286 1389
287 524
287 720
287 758
287 808
287 994
287 1010
287 1229
287 1384
288 295
288 329
288 360
288 403
288 514
288 516
288 717
288 796
288 806
288 813
288 846
288 964
288 982
288 1013
288 1023
288 1137
288 1141
288 1179
288 1192
288 1218
289 297
289 345
289 515
289 549
289 606
289 742
289 833
289 878
289 884
289 893
289 1022
289 1038
289 1053
289 1101
289 1164
289 1191
289 1215
290 401
290 450
290 453
290 473
290 697
290 730
290 741
290 845
290 857
290 902
290 999
290 1207
290 1252
291 296
291 386
291 408
291 522
291 711
291 1003
291 1042
291 1052
291 1128
292 371
292 419
292 634
292 695
292 762
292 991
292 1108
292 1181
292 1203
292 1273
292 1290
292 1322
293 346
293 374
293 439
293 465
293 540
293 554
293 575
293 594
293 601
293 604
293 683
293 718
293 745
293 753
293 763
293 821
293 960
293 987
293 1021
293 1051
293 1058
293 1090
293 1123
293 1177
293 1189
293 1204
293 1234
293 1258
293 1314
293 1319
293 1324
293 1338
293 1371
294 303
294 323
294 338
294 383
294 419
294 517
294 592
294 664
294 672
294 689
294 811
294 880
294 889
294 944
294 1100
294 1158
294 1203
294 1392
295 343
295 413
295 444
295 472
295 515
295 549
295 642
295 692
295 717
295 743
295 807
295 920
295 932
295 1023
295 1137
295 1394
295 1395
296 552
296 719
296 1001
296 1042
296 1128
296 1302
296 1393
297 330
297 335
297 520
297 638
297 811
297 861
297 890
297 958
297 961
297 1029
297 1071
297 1089
297 1094
297 1110
297 1164
297 1215
297 1281
298 369
298 389
298 656
298 1243
298 1251
299 532
299 638
299 681
299 758
299 916
299 1010
299 1071
300 309
300 495
300 590
300 729
300 768
300 811
300 998
301 337
301 363
301 510
301 519
301 527
301 548
301 627
301 667
301 906
301 912
301 1041
301 1057
301 1092
301 1194
301 1250
301 1298
301 1369
302 347
302 473
302 569
302 630
302 666
302 686
302 726
302 746
302 851
302 868
302 955
302 1087
302 1207
302 1209
302 1315
303 323
303 345
303 661
303 681
303 699
303 792
303 867
303 884
303 916
303 965
303 1004
303 1015
303 1100
303 1153
303 1374
304 530
304 654
304 834
304 1198
305 356
305 406
305 496
305 595
305 633
305 646
305 661
305 792
305 849
305 1064
305 1087
305 1194
305 1266
305 1305
306 416
306 435
306 442
306 521
306 613
306 668
306 724
306 1062
306 1106
306 1261
306 1280
306 1300
306 1307
306 1386
307 349
307 450
307 548
307 591
307 654
307 660
307 834
307 1191
307 1250
307 1267
308 471
308 555
308 622
308 713
308 828
308 939
308 1269
308 1311
309 358
309 495
309 710
309 823
309 829
309 926
309 979
309 996
309 1026
310 433
310 500
310 750
310 784
310 803
310 998
310 1222
311 392
311 529
311 539
311 706
311 890
311 957
311 972
311 1011
311 1106
311 1280
311 1341
311 1353
311 1398
312 325
312 372
312 402
312 417
312 457
312 490
312 506
312 523
312 562
312 593
312 601
312 604
312 607
312 608
312 625
312 669
312 690
312 704
312 718
312 745
312 751
312 759
312 794
312 821
312 871
312 895
312 905
312 907
312 945
312 952
312 962
312 981
312 984
312 1097
312 1111
312 1123
312 1126
312 1161
312 1195
312 1226
312 1236
312 1270
312 1314
312 1321
312 1338
312 1339
312 1378
312 1381
312 1388
313 1093
313 1117
313 1236
314 462
314 679
314 1133
314 1180
315 759
315 779
315 819
315 922
315 1111
315 1258
316 365
316 591
316 600
316 632
316 634
316 869
316 996
316 1066
316 1267
316 1290
316 1360
317 335
317 525
317 699
317 754
317 766
317 814
317 958
317 965
317 1049
317 1171
317 1344
317 1376
318 319
318 592
318 944
318 951
318 1257
319 421
319 423
319 508
319 587
319 677
319 776
319 951
319 1036
319 1077
319 1257
319 1316
320 326
320 346
320 396
320 456
320 457
320 475
320 478
320 479
320 503
320 540
320 575
320 614
320 615
320 625
320 690
320 888
320 898
320 907
320 923
320 934
320 962
320 974
320 975
320 981
320 986
320 1096
320 1132
320 1134
320 1166
320 1208
320 1234
320 1319
320 1338
320 1378
321 415
321 451
321 605
321 619
321 786
321 1083
321 1160
321 1255
321 1286
322 349
322 920
322 927
322 938
322 1070
322 1072
322 1082
322 1088
322 1196
322 1285
322 1395
323 345
323 661
323 681
323 699
323 792
323 867
323 884
323 916
323 965
323 1004
323 1015
323 1100
323 1153
323 1374
324 738
324 903
324 1141
325 352
325 374
325 439
325 457
325 478
325 490
325 494
325 523
325 540
325 547
325 561
325 573
325 601
325 607
325 691
325 759
325 782
325 790
325 799
325 864
325 888
325 895
325 934
325 960
325 962
325 974
325 975
325 980
325 984
325 987
325 1019
325 1031
325 1119
325 1125
325 1132
325 1189
325 1208
325 1226
325 1241
325 1283
325 1362
325 1378
326 331
326 341
326 359
326 367
326 391
326 461
326 477
326 478
326 584
326 593
326 601
326 610
326 691
326 842
326 872
326 881
326 899
326 923
326 960
326 984
326 986
326 1031
326 1035
326 1090
326 1097
326 1109
326 1159
326 1212
326 1217
326 1253
326 1288
326 1314
326 1356
326 1388
327 449
327 466
327 694
327 766
327 830
327 911
327 1106
327 1172
327 1280
328 398
328 418
328 431
328 446
328 496
328 542
328 595
328 658
328 662
328 684
328 754
328 766
328 806
328 879
328 1065
328 1276
329 360
329 590
329 673
329 771
329 1137
329 1192
329 1218
330 387
330 443
330 550
330 816
330 1016
330 1110
330 1215
331 332
331 374
331 402
331 439
331 456
331 468
331 503
331 521
331 535
331 593
331 601
331 608
331 690
331 691
331 763
331 836
331 923
331 948
331 949
331 984
331 1019
331 1056
331 1097
331 1099
331 1102
331 1111
331 1159
331 1169
331 1189
331 1195
331 1212
331 1226
331 1338
331 1362
331 1383
331 1388
332 346
332 350
332 439
332 440
332 479
332 523
332 584
332 588
332 593
332 608
332 614
332 625
332 691
332 745
332 753
332 871
332 888
332 892
332 952
332 960
332 962
332 1025
332 1031
332 1047
332 1051
332 1097
332 1104
332 1119
332 1161
332 1170
332 1258
332 1291
332 1303
332 1338
332 1356
333 334
333 409
333 420
333 518
333 735
333 760
333 874
333 918
334 409
334 420
334 518
334 735
334 760
334 874
334 918
335 356
335 423
335 442
335 569
335 587
335 719
335 851
335 875
335 958
335 1215
335 1245
335 1302
335 1344
336 377
336 476
336 509
336 591
336 600
336 632
336 740
336 943
336 990
336 1098
336 1124
336 1239
336 1267
336 1306
336 1397
337 363
337 510
337 519
337 527
337 548
337 627
337 667
337 906
337 912
337 1041
337 1057
337 1092
337 1194
337 1250
337 1298
337 1369
338 517
338 552
338 664
338 727
338 802
338 860
338 875
338 920
338 936
338 1001
338 1012
338 1100
338 1149
338 1200
338 1223
338 1245
338 1292
338 1301
338 1327
338 1370
338 1395
339 1000
339 1002
339 1173
339 1175
339 1219
340 453
340 533
340 676
341 388
341 457
341 602
341 608
341 962
341 987
341 1019
341 1025
341 1109
341 1132
341 1217
341 1241
341 1314
341 1319
342 514
342 806
342 1194
342 1308
342 1336
342 1380
343 453
343 726
343 732
343 743
343 997
343 1023
343 1315
344 382
344 437
344 472
344 692
345 349
345 357
345 361
345 379
345 464
345 514
345 578
345 655
345 706
345 804
345 884
345 1113
345 1131
345 1164
345 1333
345 1353
345 1355
346 374
346 490
346 513
346 523
346 540
346 562
346 599
346 601
346 603
346 612
346 615
346 644
346 691
346 704
346 718
346 745
346 759
346 763
346 779
346 801
346 842
346 844
346 888
346 898
346 930
346 945
346 975
346 976
346 1019
346 1031
346 1054
346 1056
346 1058
346 1091
346 1112
346 1146
346 1159
346 1186
346 1199
346 1204
346 1230
346 1270
346 1271
346 1291
346 1295
346 1321
346 1339
346 1362
346 1373
346 1378
347 666
347 1061
347 1294
348 354
348 377
348 399
348 472
348 548
348 670
348 672
348 689
348 692
348 747
348 896
348 1049
348 1250
348 1256
349 660
349 726
349 797
349 800
349 884
349 927
349 938
349 1003
349 1052
349 1108
349 1181
349 1194
349 1196
349 1296
349 1315
350 475
350 551
350 612
350 690
350 755
350 864
350 892
350 1058
350 1166
350 1186
350 1271
350 1373
350 1383
351 356
351 364
351 432
351 657
351 701
351 744
351 850
351 998
351 1039
352 374
352 384
352 388
352 457
352 477
352 478
352 490
352 521
352 577
352 625
352 663
352 755
352 759
352 819
352 836
352 895
352 898
352 899
352 940
352 945
352 1019
352 1031
352 1047
352 1097
352 1099
352 1104
352 1109
352 1116
352 1123
352 1195
352 1258
352 1271
352 1295
352 1312
352 1321
352 1362
352 1378
352 1388
353 511
353 524
353 839
353 938
353 967
353 1196
353 1229
354 414
354 504
354 722
354 737
354 765
354 1105
354 1201
354 1233
355 562
355 601
355 763
355 794
355 799
355 934
355 948
355 1166
355 1189
355 1271
356 361
356 406
356 605
356 637
356 804
356 850
356 958
356 1131
356 1154
356 1168
356 1286
356 1326
356 1355
357 553
357 671
357 722
357 765
357 884
357 1028
357 1333
357 1351
357 1354
358 450
358 495
358 710
359 402
359 494
359 503
359 521
359 601
359 625
359 636
359 669
359 755
359 790
359 801
359 871
359 898
359 948
359 1019
359 1119
359 1122
359 1125
359 1162
359 1186
359 1212
359 1321
359 1338
359 1378
359 1381
359 1383
360 524
360 654
360 741
360 834
360 882
360 902
360 983
360 1137
360 1157
360 1182
360 1192
360 1218
360 1229
360 1232
360 1293
360 1304
360 1389
361 380
361 403
361 511
361 560
361 749
361 839
361 884
361 1013
361 1105
361 1131
361 1278
362 431
362 519
362 591
362 684
362 912
362 937
362 1267
363 559
363 563
363 863
363 887
363 920
363 1030
363 1150
363 1395
364 379
364 578
364 722
364 765
364 850
364 869
365 392
365 421
365 580
365 586
365 628
365 672
365 675
365 689
365 728
365 909
365 957
365 1066
365 1077
365 1360
365 1368
366 785
366 1214
366 1350
367 374
367 388
367 397
367 429
367 468
367 540
367 545
367 575
367 596
367 599
367 602
367 603
367 608
367 625
367 683
367 690
367 755
367 799
367 812
367 842
367 869
367 871
367 888
367 892
367 898
367 974
367 1019
367 1047
367 1054
367 1145
367 1184
367 1186
367 1204
367 1217
367 1226
367 1289
367 1291
367 1312
367 1348
367 1356
368 381
368 409
368 672
368 689
368 699
368 729
368 735
368 785
368 852
368 965
368 1053
368 1061
368 1214
368 1294
368 1367
369 385
369 389
369 517
369 531
369 538
369 556
369 741
369 869
369 902
369 906
369 1004
369 1015
369 1043
369 1243
369 1261
370 426
370 448
370 572
370 768
370 950
370 1024
371 425
371 798
371 845
371 857
371 875
371 919
371 1188
371 1244
371 1245
371 1273
371 1322
371 1329
372 374
372 388
372 396
372 439
372 465
372 490
372 498
372 499
372 523
372 540
372 561
372 568
372 573
372 596
372 602
372 608
372 614
372 669
372 691
372 745
372 755
372 799
372 820
372 842
372 871
372 898
372 905
372 974
372 980
372 1019
372 1051
372 1112
372 1125
372 1195
372 1208
372 1230
372 1258
372 1338
372 1371
372 1373
372 1378
373 528
373 556
373 1002
373 1175
374 375
374 402
374 429
374 461
374 477
374 521
374 535
374 545
374 568
374 573
374 593
374 596
374 599
374 608
374 612
374 631
374 691
374 704
374 718
374 837
374 864
374 892
374 934
374 945
374 980
374 1031
374 1035
374 1051
374 1109
374 1112
374 1126
374 1146
374 1169
374 1195
374 1253
374 1312
374 1324
374 1338
374 1381
375 396
375 457
375 490
375 596
375 614
375 718
375 819
375 842
375 871
375 888
375 940
375 981
375 1047
375 1090
375 1132
375 1186
375 1258
375 1283
375 1295
375 1381
375 1383
376 409
376 447
376 460
376 484
376 719
376 735
376 773
376 818
376 946
376 1302
376 1387
377 420
377 427
377 541
377 556
377 582
377 726
377 736
377 740
377 886
377 918
377 1000
377 1009
377 1151
377 1178
377 1219
377 1315
377 1328
377 1365
377 1393
378 789
378 1262
378 1309
379 556
379 578
379 658
379 695
379 762
379 884
379 890
379 906
379 1041
379 1393
380 560
380 749
380 1131
380 1278
381 409
381 672
381 689
381 699
381 729
381 735
381 785
381 852
381 965
381 1053
381 1061
381 1214
381 1294
381 1367
382 437
382 1062
382 1103
382 1307
382 1350
382 1396
383 880
383 889
383 1100
383 1158
384 391
384 429
384 475
384 498
384 545
384 658
384 669
384 745
384 753
384 779
384 781
384 801
384 925
384 945
384 975
384 986
384 1031
384 1058
384 1090
384 1093
384 1111
384 1112
384 1186
384 1241
384 1258
384 1283
384 1288
384 1289
384 1314
384 1319
384 1348
384 1362
384 1371
384 1378
385 531
385 766
385 788
385 921
385 1141
385 1243
386 522
386 715
386 800
386 883
386 1042
386 1210
386 1308
386 1331
386 1336
386 1379
387 422
387 463
387 485
387 516
387 550
387 653
387 813
387 823
387 843
387 959
387 979
387 1110
387 1223
388 391
388 402
388 456
388 457
388 477
388 482
388 490
388 494
388 561
388 574
388 575
388 577
388 594
388 599
388 603
388 604
388 607
388 608
388 612
388 614
388 644
388 683
388 691
388 718
388 745
388 753
388 759
388 821
388 888
388 892
388 907
388 922
388 960
388 974
388 1014
388 1019
388 1025
388 1085
388 1091
388 1096
388 1097
388 1112
388 1146
388 1169
388 1185
388 1258
388 1270
388 1283
388 1291
388 1295
388 1314
388 1342
388 1362
388 1373
388 1388
389 656
389 1243
389 1251
390 413
390 630
390 642
390 891
390 968
390 1076
390 1165
390 1209
390 1254
391 439
391 461
391 468
391 521
391 551
391 568
391 596
391 601
391 603
391 612
391 751
391 755
391 759
391 763
391 779
391 799
391 864
391 888
391 892
391 907
391 980
391 986
391 1056
391 1126
391 1148
391 1258
391 1295
391 1338
392 539
392 662
392 777
392 879
392 887
392 957
392 1066
392 1210
392 1238
393 436
393 452
393 565
393 635
393 641
393 697
393 832
393 858
393 867
393 931
393 1082
393 1088
393 1265
393 1275
393 1335
393 1374
393 1375
394 536
394 696
394 714
394 932
394 1157
394 1389
394 1394
395 1223
396 434
396 456
396 475
396 523
396 551
396 577
396 596
396 601
396 604
396 608
396 614
396 691
396 864
396 895
396 899
396 922
396 962
396 980
396 981
396 984
396 1048
396 1058
396 1090
396 1091
396 1104
396 1117
396 1145
396 1177
396 1236
396 1271
396 1291
396 1339
396 1378
397 478
397 545
397 562
397 568
397 575
397 745
397 755
397 794
397 888
397 905
397 934
397 948
397 974
397 1019
397 1031
397 1054
397 1090
397 1097
397 1126
397 1236
397 1295
397 1373
398 418
398 542
398 566
398 804
398 853
398 901
398 1210
398 1259
398 1292
398 1355
398 1370
399 452
399 492
399 534
399 546
399 875
399 1050
399 1245
399 1335
400 422
400 572
400 657
400 814
400 845
400 857
400 1039
400 1107
400 1174
401 480
401 672
401 689
401 715
401 730
401 768
401 793
401 883
401 1046
401 1082
401 1088
401 1107
401 1252
402 417
402 429
402 461
402 465
402 475
402 478
402 490
402 535
402 562
402 573
402 594
402 599
402 602
402 607
402 612
402 625
402 663
402 751
402 753
402 888
402 895
402 934
402 974
402 980
402 1054
402 1090
402 1109
402 1116
402 1123
402 1132
402 1159
402 1170
402 1195
402 1258
402 1270
402 1283
402 1288
402 1295
402 1314
402 1383
403 518
403 693
403 874
403 1013
403 1113
403 1131
403 1137
403 1272
403 1308
403 1336
404 621
404 674
404 686
404 746
404 1340
405 442
405 552
405 598
405 671
405 848
405 894
405 913
405 972
405 1001
405 1176
405 1221
405 1231
405 1289
406 496
406 595
406 633
406 646
406 661
406 792
406 849
406 1064
406 1087
406 1194
406 1266
406 1305
407 501
407 633
407 646
407 733
407 860
407 1359
408 467
408 563
408 582
408 706
408 711
408 742
408 833
408 863
408 932
408 1009
408 1042
408 1070
408 1353
408 1394
409 447
409 471
409 622
409 706
409 735
409 856
409 988
409 1028
409 1242
409 1353
409 1354
410 685
410 862
410 1024
410 1113
410 1120
410 1171
410 1187
410 1238
410 1318
410 1376
411 462
411 508
411 677
411 1150
411 1308
411 1336
412 423
412 473
412 488
412 587
412 715
412 883
412 938
412 1029
412 1062
412 1089
412 1196
412 1207
412 1307
413 502
413 508
413 642
413 675
413 677
413 701
413 728
413 744
413 855
413 865
413 885
413 968
413 1023
414 737
414 785
414 1029
414 1089
414 1168
414 1214
414 1326
415 556
415 572
415 717
415 786
415 1057
415 1160
415 1298
415 1304
416 435
416 627
416 667
416 1108
416 1140
416 1181
416 1284
416 1300
417 434
417 490
417 494
417 513
417 521
417 523
417 562
417 577
417 599
417 603
417 607
417 612
417 663
417 683
417 779
417 801
417 844
417 888
417 895
417 945
417 948
417 986
417 1056
417 1093
417 1104
417 1109
417 1123
417 1145
417 1208
417 1217
417 1241
417 1312
417 1319
417 1348
417 1371
417 1381
418 542
418 566
418 804
418 853
418 901
418 1210
418 1259
418 1292
418 1355
418 1370
419 463
419 563
419 571
419 591
419 843
419 863
419 1100
419 1157
419 1203
419 1267
419 1322
419 1361
419 1389
420 421
420 678
420 918
420 1040
420 1077
420 1140
420 1284
420 1351
421 489
421 654
421 658
421 662
421 705
421 834
421 869
421 879
421 897
421 918
421 1066
421 1077
421 1092
421 1206
421 1223
421 1228
421 1257
421 1369
422 550
422 569
422 658
422 672
422 689
422 793
422 851
422 906
422 1174
423 488
423 587
423 628
423 958
423 1257
423 1368
424 999
424 1032
424 1081
425 647
425 747
425 914
425 953
425 954
425 956
425 1244
425 1247
425 1256
425 1273
425 1316
425 1330
425 1346
426 448
426 572
426 768
426 950
426 1024
427 450
427 462
427 580
427 586
427 671
427 904
427 1069
427 1328
428 1056
429 478
429 490
429 551
429 573
429 601
429 625
429 644
429 658
429 663
429 751
429 781
429 836
429 844
429 847
429 895
429 907
429 1047
429 1056
429 1091
429 1145
429 1148
429 1159
429 1169
429 1195
429 1226
429 1253
429 1288
429 1324
429 1338
429 1356
429 1371
429 1383
430 815
430 1169
431 542
431 553
431 570
431 684
431 709
431 1005
431 1067
431 1167
431 1337
432 462
432 534
432 606
432 720
432 734
432 808
432 850
432 932
432 933
432 1108
432 1181
432 1365
432 1394
433 750
433 784
433 909
434 456
434 498
434 506
434 521
434 535
434 551
434 594
434 601
434 604
434 607
434 614
434 683
434 691
434 704
434 751
434 756
434 781
434 790
434 794
434 812
434 821
434 948
434 974
434 975
434 986
434 987
434 1031
434 1109
434 1111
434 1117
434 1119
434 1123
434 1162
434 1169
434 1186
434 1283
434 1321
434 1324
434 1338
434 1378
434 1388
435 627
435 667
435 1108
435 1140
435 1181
435 1284
435 1300
436 605
436 635
436 890
436 971
436 1183
436 1286
437 1062
437 1103
437 1307
437 1350
437 1396
438 511
438 529
438 777
438 783
438 839
438 909
438 932
438 1075
438 1139
438 1394
439 457
439 477
439 498
439 503
439 521
439 540
439 562
439 625
439 644
439 745
439 753
439 755
439 759
439 763
439 799
439 812
439 888
439 892
439 899
439 905
439 925
439 934
439 948
439 960
439 962
439 984
439 986
439 1031
439 1034
439 1035
439 1085
439 1086
439 1091
439 1111
439 1145
439 1146
439 1148
439 1185
439 1217
439 1241
439 1271
439 1274
439 1291
439 1312
439 1314
439 1338
439 1388
440 475
440 490
440 601
440 608
440 625
440 669
440 763
440 981
441 489
441 597
441 1206
442 452
442 473
442 590
442 958
442 1207
442 1221
442 1300
442 1335
442 1386
443 616
443 816
443 998
443 1110
443 1150
443 1382
444 460
444 777
444 804
444 807
444 946
444 1023
444 1330
444 1355
444 1393
445 663
445 1117
446 542
446 548
446 767
446 853
446 901
446 1065
446 1250
447 460
447 484
447 719
447 735
447 773
447 818
447 946
447 1302
447 1387
448 641
448 702
448 859
448 950
448 1020
448 1265
449 460
449 466
449 764
449 904
449 941
449 946
449 1069
450 534
450 660
450 710
450 722
450 730
450 765
450 776
450 831
450 860
450 869
450 1026
450 1041
450 1328
451 619
451 662
451 681
451 777
451 786
451 861
451 879
451 916
451 961
451 1062
451 1223
451 1307
451 1308
451 1336
452 643
452 659
452 806
452 1026
452 1335
453 487
453 533
453 662
453 672
453 689
453 720
453 730
453 743
453 808
453 829
453 879
453 926
453 996
453 1299
454 940
454 1212
455 974
455 975
455 1056
456 494
456 506
456 562
456 599
456 625
456 683
456 718
456 753
456 791
456 948
456 962
456 981
456 1031
456 1093
456 1099
456 1102
456 1117
456 1159
456 1204
456 1348
456 1378
456 1383
457 461
457 521
457 540
457 593
457 596
457 601
457 608
457 644
457 669
457 704
457 751
457 757
457 836
457 980
457 986
457 1014
457 1025
457 1033
457 1047
457 1054
457 1090
457 1102
457 1132
457 1170
457 1186
457 1189
457 1226
457 1253
457 1274
457 1283
457 1295
457 1314
457 1338
457 1348
457 1378
458 558
458 563
458 634
458 798
458 863
458 878
458 890
458 897
458 919
458 1022
458 1228
458 1290
458 1397
459 1317
459 1341
459 1397
459 1398
460 807
460 946
460 1002
460 1175
461 465
461 478
461 499
461 523
461 575
461 603
461 614
461 625
461 658
461 683
461 745
461 779
461 790
461 791
461 799
461 895
461 907
461 922
461 923
461 960
461 962
461 975
461 987
461 1047
461 1051
461 1085
461 1096
461 1125
461 1148
461 1159
461 1162
461 1208
461 1217
461 1230
461 1234
461 1253
461 1271
461 1295
461 1324
461 1338
461 1356
461 1373
462 524
462 544
462 626
462 630
462 747
462 908
462 1002
462 1020
462 1135
462 1175
462 1180
462 1209
462 1229
462 1256
462 1268
462 1328
462 1347
463 550
463 600
463 605
463 632
463 695
463 706
463 761
463 762
463 766
463 843
463 1203
463 1286
463 1353
463 1372
464 472
464 692
464 884
465 521
465 523
465 562
465 573
465 594
465 596
465 612
465 614
465 648
465 751
465 753
465 763
465 779
465 790
465 821
465 842
465 952
465 960
465 980
465 1051
465 1058
465 1059
465 1085
465 1109
465 1111
465 1116
465 1146
465 1148
465 1159
465 1169
465 1177
465 1217
465 1230
465 1236
465 1258
465 1274
465 1288
465 1295
465 1321
465 1339
465 1388
466 694
466 766
466 830
466 911
466 1106
466 1172
466 1280
467 613
467 711
467 724
468 478
468 490
468 506
468 521
468 551
468 575
468 601
468 608
468 669
468 718
468 781
468 801
468 819
468 907
468 917
468 923
468 948
468 974
468 975
468 981
468 984
468 1058
468 1102
468 1145
468 1170
468 1189
468 1217
468 1283
468 1314
468 1321
468 1348
468 1356
468 1362
468 1371
469 566
469 1259
469 1349
470 629
470 641
470 675
470 728
470 866
470 996
470 1016
470 1079
470 1105
470 1265
471 622
471 735
471 828
471 887
472 473
472 486
472 624
472 633
472 646
472 692
472 695
472 762
472 911
472 937
472 992
472 1023
472 1028
472 1041
472 1172
472 1207
472 1240
472 1354
473 486
473 488
473 692
473 730
473 1207
473 1240
474 836
474 980
474 1195
475 521
475 551
475 574
475 599
475 625
475 658
475 781
475 790
475 864
475 888
475 899
475 922
475 945
475 1031
475 1056
475 1085
475 1091
475 1097
475 1099
475 1112
475 1132
475 1204
475 1270
475 1279
476 509
476 740
476 823
476 979
477 478
477 490
477 498
477 503
477 523
477 551
477 601
477 607
477 612
477 691
477 708
477 718
477 759
477 801
477 842
477 892
477 906
477 980
477 981
477 987
477 1093
477 1102
477 1148
477 1189
477 1208
477 1212
477 1288
477 1295
477 1319
477 1321
477 1324
477 1378
477 1383
478 521
478 551
478 577
478 599
478 601
478 612
478 614
478 625
478 644
478 759
478 779
478 799
478 842
478 844
478 888
478 898
478 905
478 934
478 940
478 952
478 960
478 974
478 975
478 984
478 986
478 1025
478 1031
478 1051
478 1056
478 1085
478 1086
478 1091
478 1093
478 1099
478 1112
478 1161
478 1166
478 1177
478 1186
478 1190
478 1204
478 1230
478 1263
478 1270
478 1271
478 1279
478 1283
478 1295
478 1314
478 1348
478 1356
479 490
479 494
479 551
479 601
479 636
479 801
479 895
479 898
479 975
479 1031
479 1033
479 1073
479 1112
479 1117
479 1132
479 1145
479 1217
479 1270
479 1274
479 1348
479 1378
480 508
480 677
480 1046
480 1098
480 1124
480 1252
480 1304
481 700
481 826
481 900
481 904
481 910
481 947
481 973
481 1016
481 1069
481 1163
481 1358
482 554
482 581
482 704
482 763
482 952
482 1086
482 1090
482 1159
482 1283
482 1388
483 1185
483 1295
484 508
484 567
484 677
484 818
484 841
484 1194
485 550
485 695
485 729
485 762
485 1330
486 515
486 530
486 549
486 692
486 706
486 822
486 858
486 1006
486 1098
486 1124
486 1198
486 1207
486 1240
486 1275
486 1353
487 695
487 738
487 762
487 1299
487 1323
488 587
488 715
488 883
488 938
488 1029
488 1062
488 1089
488 1196
488 1207
488 1307
489 496
489 538
489 595
489 597
489 633
489 646
489 695
489 762
489 1041
489 1077
489 1206
489 1222
490 498
490 513
490 551
490 562
490 599
490 602
490 614
490 625
490 658
490 704
490 753
490 755
490 759
490 763
490 794
490 836
490 842
490 844
490 895
490 905
490 974
490 975
490 984
490 1031
490 1047
490 1051
490 1056
490 1096
490 1104
490 1112
490 1117
490 1119
490 1132
490 1152
490 1159
490 1161
490 1162
490 1169
490 1185
490 1195
490 1204
490 1236
490 1258
490 1270
490 1274
490 1295
490 1314
490 1321
490 1324
490 1348
490 1356
490 1362
490 1381
490 1383
491 529
491 541
491 647
491 656
491 873
491 953
491 1251
492 501
492 546
492 638
492 715
492 733
492 883
492 1071
493 496
493 595
493 796
493 846
493 989
494 498
494 521
494 573
494 584
494 603
494 614
494 669
494 691
494 801
494 821
494 844
494 888
494 922
494 934
494 952
494 986
494 1025
494 1058
494 1104
494 1109
494 1111
494 1117
494 1148
494 1161
494 1199
494 1234
494 1236
494 1274
494 1312
494 1324
494 1338
494 1339
494 1348
494 1371
494 1383
495 710
495 823
495 829
495 926
495 979
495 996
495 1026
496 542
496 595
496 823
496 848
496 852
496 979
496 985
496 989
496 994
496 1082
496 1084
496 1088
496 1194
496 1206
496 1231
496 1260
496 1364
496 1367
496 1384
497 623
497 897
497 966
497 1182
497 1228
498 594
498 610
498 614
498 625
498 658
498 718
498 755
498 790
498 842
498 892
498 895
498 905
498 962
498 975
498 984
498 1031
498 1091
498 1097
498 1116
498 1132
498 1159
498 1169
498 1186
498 1189
498 1204
498 1208
498 1226
498 1230
498 1274
498 1295
498 1312
498 1314
498 1321
499 1148
500 784
500 803
500 1223
501 546
501 733
501 1115
501 1332
501 1359
502 544
502 642
502 797
502 885
502 908
502 1098
502 1124
502 1296
503 573
503 601
503 683
503 718
503 759
503 763
503 799
503 892
503 940
503 948
503 962
503 974
503 984
503 1056
503 1145
503 1146
503 1169
503 1177
503 1208
503 1295
503 1314
503 1381
504 637
504 673
504 771
504 1154
504 1233
504 1260
504 1364
505 877
505 887
505 1101
506 568
506 573
506 603
506 608
506 663
506 779
506 907
506 922
506 984
506 1122
506 1146
506 1234
506 1279
506 1383
507 872
507 895
507 974
507 1048
507 1126
507 1208
507 1283
507 1324
508 520
508 569
508 639
508 642
508 677
508 818
508 851
508 1046
508 1257
509 740
509 823
509 979
510 527
510 552
510 732
510 811
510 911
510 997
510 1001
510 1172
511 839
511 967
511 1131
511 1139
512 1378
513 545
513 599
513 601
513 603
513 612
513 691
513 704
513 799
513 842
513 871
513 892
513 960
513 1019
513 1025
513 1047
513 1109
513 1117
513 1186
513 1241
513 1253
513 1270
513 1295
513 1339
513 1362
513 1381
514 563
514 624
514 725
514 863
514 884
514 900
514 937
514 992
514 1083
514 1137
514 1157
514 1255
514 1380
514 1389
514 1391
515 538
515 549
515 647
515 858
515 953
515 1023
515 1140
515 1164
515 1240
515 1275
515 1284
515 1330
516 550
516 580
516 586
516 641
516 725
516 813
516 911
516 938
516 1137
516 1172
516 1196
516 1238
516 1247
516 1265
516 1346
516 1391
517 572
517 662
517 664
517 675
517 728
517 732
517 831
517 879
517 997
517 1100
517 1243
517 1393
518 582
518 874
518 1009
518 1013
518 1151
519 611
519 697
519 912
519 914
519 1202
519 1323
520 647
520 677
520 705
520 869
520 953
520 1165
520 1215
520 1254
521 535
521 596
521 604
521 610
521 641
521 658
521 686
521 746
521 751
521 753
521 836
521 842
521 895
521 940
521 962
521 974
521 980
521 987
521 1025
521 1054
521 1090
521 1092
521 1099
521 1109
521 1111
521 1125
521 1132
521 1146
521 1162
521 1166
521 1169
521 1186
521 1217
521 1226
521 1265
521 1300
521 1314
521 1319
521 1324
521 1348
521 1369
521 1381
522 715
522 800
522 883
522 1042
522 1210
522 1308
522 1331
522 1336
522 1379
523 535
523 573
523 601
523 612
523 683
523 704
523 718
523 781
523 799
523 812
523 836
523 842
523 872
523 922
523 930
523 1025
523 1035
523 1055
523 1085
523 1093
523 1096
523 1104
523 1109
523 1117
523 1159
523 1189
523 1212
523 1217
523 1253
523 1258
523 1319
523 1356
523 1373
524 541
524 715
524 883
524 967
524 1192
524 1229
525 534
525 541
525 611
525 789
525 1171
525 1202
525 1262
525 1344
525 1376
526 856
526 935
526 988
526 1304
527 552
527 732
527 811
527 911
527 997
527 1001
527 1172
528 556
528 1002
528 1175
529 539
529 645
529 873
529 1139
529 1155
530 623
530 721
530 869
530 886
530 937
530 966
530 1061
530 1198
530 1240
530 1294
530 1309
531 766
531 788
531 921
531 1141
531 1243
532 638
532 681
532 758
532 916
532 1010
532 1071
533 676
535 561
535 562
535 568
535 575
535 577
535 608
535 683
535 704
535 755
535 781
535 782
535 794
535 812
535 864
535 898
535 922
535 980
535 986
535 1025
535 1035
535 1047
535 1048
535 1056
535 1090
535 1093
535 1117
535 1145
535 1162
535 1170
535 1236
535 1271
535 1295
535 1373
536 696
536 714
536 932
536 1157
536 1389
536 1394
537 657
537 682
537 714
537 780
537 1017
537 1039
537 1080
537 1121
537 1210
537 1222
537 1246
538 549
538 1205
538 1206
538 1243
538 1282
539 706
539 890
539 957
539 972
539 1011
539 1106
539 1280
539 1341
539 1353
539 1398
540 577
540 594
540 601
540 608
540 759
540 781
540 791
540 812
540 842
540 872
540 925
540 974
540 980
540 1086
540 1093
540 1104
540 1109
540 1119
540 1146
540 1159
540 1166
540 1195
540 1199
540 1204
540 1258
540 1321
540 1371
540 1373
540 1383
541 600
541 632
541 638
541 650
541 729
541 835
541 873
541 887
541 1000
541 1071
541 1098
541 1124
541 1219
541 1229
541 1304
542 595
542 658
542 662
542 684
542 754
542 766
542 806
542 879
542 1065
542 1276
543 811
543 832
543 861
543 931
543 961
543 969
543 996
543 1390
543 1397
544 605
544 798
544 860
544 885
544 887
544 908
544 911
544 919
544 938
544 1092
544 1095
544 1098
544 1124
544 1172
544 1196
544 1246
544 1286
544 1323
544 1341
544 1369
544 1398
545 594
545 669
545 716
545 718
545 799
545 842
545 922
545 934
545 960
545 962
545 974
545 1031
545 1051
545 1091
545 1148
545 1177
545 1288
545 1291
546 638
546 715
546 733
546 883
546 1071
547 573
547 603
547 604
547 718
547 1093
547 1279
548 585
548 620
548 654
548 660
548 802
548 834
548 1065
548 1200
548 1250
549 647
549 858
549 953
549 1023
549 1140
549 1164
549 1240
549 1275
549 1284
549 1330
550 653
550 813
550 823
550 843
550 959
550 979
550 1110
550 1223
551 568
551 575
551 577
551 601
551 607
551 663
551 718
551 745
551 759
551 790
551 799
551 821
551 864
551 888
551 905
551 907
551 925
551 948
551 986
551 1102
551 1132
551 1161
551 1169
551 1230
551 1270
551 1324
551 1338
551 1339
551 1378
551 1383
552 566
552 654
552 656
552 664
552 676
552 681
552 834
552 916
552 937
552 1001
552 1108
552 1128
552 1151
552 1166
552 1181
552 1221
552 1251
552 1259
552 1392
553 673
553 678
553 684
553 709
553 767
553 771
553 1040
553 1101
553 1167
553 1333
554 759
554 779
554 975
554 1019
554 1025
554 1104
554 1295
555 638
555 699
555 713
555 789
555 828
555 965
555 1071
555 1262
556 578
556 707
556 709
556 715
556 723
556 867
556 883
556 887
556 1000
556 1041
556 1160
556 1167
556 1219
556 1243
556 1374
557 569
557 637
557 851
557 1154
557 1357
558 563
558 634
558 798
558 863
558 878
558 890
558 897
558 919
558 1022
558 1228
558 1290
558 1397
559 571
559 887
559 920
559 972
559 1030
559 1105
559 1168
559 1308
559 1326
559 1336
559 1361
559 1395
560 749
560 1131
560 1278
561 603
561 608
561 644
561 658
561 759
561 781
561 871
561 905
561 923
561 925
561 981
561 1019
561 1048
561 1054
561 1058
561 1102
561 1122
561 1130
561 1146
561 1159
561 1195
561 1217
561 1225
561 1236
561 1258
561 1295
561 1388
562 593
562 599
562 608
562 618
562 631
562 663
562 690
562 718
562 779
562 794
562 801
562 819
562 907
562 925
562 940
562 1025
562 1048
562 1085
562 1102
562 1112
562 1117
562 1125
562 1169
562 1208
562 1217
562 1234
562 1258
562 1279
562 1338
562 1348
563 580
563 586
563 611
563 707
563 711
563 723
563 754
563 863
563 904
563 1069
563 1082
563 1088
563 1202
563 1203
564 853
564 901
564 943
564 1008
564 1306
565 1043
565 1108
565 1181
565 1392
566 580
566 582
566 586
566 772
566 1001
566 1009
566 1032
566 1045
566 1081
566 1259
566 1272
566 1349
567 591
567 680
567 720
567 808
567 818
567 841
567 854
567 1036
567 1166
567 1267
567 1272
567 1397
568 589
568 615
568 631
568 663
568 759
568 790
568 819
568 905
568 922
568 948
568 962
568 1035
568 1047
568 1085
568 1097
568 1109
568 1111
568 1117
568 1123
568 1159
568 1166
568 1185
568 1189
568 1208
568 1226
568 1258
568 1324
568 1342
568 1381
569 630
569 651
569 677
569 829
569 851
569 926
569 958
569 1027
569 1209
569 1357
570 684
570 861
570 961
570 1036
570 1064
570 1067
570 1266
571 626
571 914
571 1003
571 1030
571 1052
571 1057
571 1203
571 1298
571 1347
571 1361
572 827
572 990
572 1138
572 1160
572 1174
572 1239
572 1392
573 575
573 596
573 599
573 610
573 663
573 669
573 755
573 759
573 794
573 895
573 907
573 925
573 945
573 981
573 987
573 1048
573 1091
573 1093
573 1132
573 1230
573 1373
574 596
574 602
574 612
574 615
574 644
574 819
574 836
574 980
574 986
574 1051
574 1059
574 1085
574 1091
574 1117
574 1169
574 1185
574 1208
574 1217
574 1339
574 1378
575 584
575 596
575 599
575 608
575 644
575 658
575 683
575 801
575 812
575 819
575 844
575 892
575 907
575 945
575 976
575 1085
575 1090
575 1111
575 1159
575 1170
575 1189
575 1204
575 1270
575 1314
575 1324
575 1373
576 795
576 1108
576 1151
576 1181
577 594
577 599
577 683
577 799
577 801
577 819
577 842
577 925
577 934
577 960
577 1056
577 1074
577 1097
577 1117
577 1125
577 1142
577 1156
577 1212
577 1217
577 1270
577 1312
577 1314
577 1321
577 1348
577 1356
577 1381
578 658
578 695
578 762
578 884
578 890
578 906
578 1041
578 1393
579 609
579 802
579 824
579 876
579 964
579 1057
579 1061
579 1062
579 1200
579 1269
579 1294
579 1298
579 1307
579 1345
580 582
580 586
580 770
580 813
580 853
580 862
580 863
580 878
580 901
580 1009
580 1022
580 1066
580 1140
580 1259
580 1276
580 1284
580 1297
580 1318
580 1320
580 1328
581 596
581 801
581 980
581 1189
581 1208
581 1270
582 586
582 711
582 817
582 874
582 1009
582 1259
582 1310
583 932
583 1003
583 1052
583 1394
584 593
584 888
584 895
584 907
584 960
584 1035
584 1090
584 1104
584 1169
584 1208
584 1230
584 1234
584 1253
584 1271
584 1287
584 1312
584 1319
584 1348
584 1356
584 1363
585 620
585 695
585 762
585 767
585 800
585 1101
585 1103
585 1250
585 1396
586 770
586 813
586 853
586 862
586 863
586 878
586 901
586 1009
586 1022
586 1066
586 1140
586 1259
586 1276
586 1284
586 1297
586 1318
586 1320
586 1328
587 628
587 958
587 1257
587 1368
588 960
588 1145
588 1312
589 962
590 600
590 632
590 793
590 853
590 901
590 1218
591 660
591 707
591 723
591 740
591 805
591 832
591 841
591 931
591 1203
591 1267
591 1360
592 725
592 944
592 951
592 1028
592 1100
592 1354
592 1391
593 608
593 690
593 751
593 759
593 871
593 923
593 952
593 1051
593 1117
593 1145
593 1169
593 1226
593 1295
593 1383
594 794
594 801
594 934
595 823
595 848
595 852
595 979
595 985
595 989
595 994
595 1082
595 1084
595 1088
595 1194
595 1206
595 1231
595 1260
595 1364
595 1367
595 1384
596 601
596 607
596 615
596 644
596 691
596 763
596 781
596 790
596 791
596 821
596 842
596 872
596 888
596 905
596 934
596 948
596 962
596 975
596 984
596 1031
596 1035
596 1054
596 1058
596 1090
596 1102
596 1104
596 1109
596 1119
596 1146
596 1162
596 1185
596 1189
596 1217
596 1270
596 1283
596 1321
596 1338
596 1348
597 1206
598 673
598 771
598 1176
598 1221
599 614
599 644
599 658
599 669
599 683
599 691
599 753
599 791
599 888
599 892
599 945
599 962
599 975
599 987
599 1169
599 1177
599 1186
599 1189
599 1195
599 1241
599 1258
599 1271
599 1289
599 1295
599 1312
599 1314
599 1319
600 606
600 609
600 632
600 673
600 676
600 740
600 742
600 771
600 824
600 833
600 843
600 870
600 1060
600 1289
600 1360
601 603
601 604
601 607
601 608
601 644
601 691
601 759
601 774
601 836
601 871
601 872
601 895
601 948
601 975
601 981
601 987
601 1025
601 1035
601 1047
601 1056
601 1058
601 1085
601 1093
601 1134
601 1159
601 1212
601 1226
601 1227
601 1234
601 1270
601 1279
601 1289
601 1321
601 1378
601 1381
602 801
602 842
602 864
602 895
602 905
602 940
602 948
602 962
602 1085
602 1111
602 1117
602 1123
602 1145
602 1159
602 1204
602 1234
602 1253
602 1283
602 1288
602 1319
602 1371
603 615
603 644
603 669
603 690
603 704
603 745
603 790
603 799
603 801
603 945
603 948
603 952
603 980
603 981
603 986
603 1025
603 1035
603 1097
603 1104
603 1112
603 1159
603 1177
603 1184
603 1212
603 1241
603 1314
603 1356
603 1378
604 612
604 644
604 690
604 691
604 755
604 763
604 888
604 934
604 948
604 962
604 974
604 975
604 1031
604 1048
604 1054
604 1125
604 1161
604 1189
604 1212
604 1213
604 1217
604 1234
604 1312
604 1383
604 1388
605 635
605 637
605 652
605 786
605 843
605 908
605 1154
605 1188
605 1201
605 1223
605 1286
605 1329
605 1377
606 632
606 805
606 831
606 972
606 1164
607 669
607 690
607 691
607 812
607 892
607 895
607 899
607 905
607 923
607 952
607 1025
607 1035
607 1058
607 1090
607 1189
607 1204
607 1211
607 1236
607 1279
607 1288
608 625
608 663
608 669
608 691
608 698
608 704
608 718
608 753
608 763
608 781
608 790
608 794
608 799
608 819
608 844
608 864
608 872
608 892
608 899
608 905
608 940
608 962
608 974
608 984
608 987
608 1014
608 1019
608 1021
608 1054
608 1091
608 1093
608 1096
608 1111
608 1117
608 1169
608 1212
608 1217
608 1226
608 1234
608 1236
608 1271
608 1274
608 1321
608 1343
608 1356
608 1371
608 1381
609 632
609 824
609 861
609 961
609 1247
609 1345
609 1346
610 669
610 683
610 801
610 821
610 984
610 1177
610 1295
611 863
611 867
611 870
611 912
611 1060
611 1187
611 1202
611 1374
612 614
612 757
612 812
612 819
612 842
612 892
612 895
612 907
612 922
612 923
612 925
612 974
612 984
612 1007
612 1031
612 1056
612 1058
612 1116
612 1123
612 1159
612 1166
612 1170
612 1195
612 1204
612 1212
612 1217
612 1230
612 1258
612 1279
612 1295
612 1319
612 1324
612 1383
613 637
613 696
613 724
613 1154
613 1300
614 644
614 683
614 745
614 759
614 763
614 790
614 836
614 842
614 864
614 872
614 888
614 895
614 934
614 962
614 974
614 975
614 980
614 984
614 1031
614 1048
614 1054
614 1097
614 1104
614 1117
614 1119
614 1125
614 1156
614 1159
614 1170
614 1185
614 1186
614 1204
614 1258
614 1289
614 1295
614 1321
614 1339
614 1362
614 1378
614 1383
615 625
615 644
615 690
615 753
615 763
615 790
615 799
615 801
615 925
615 945
615 962
615 974
615 980
615 981
615 987
615 1093
615 1097
615 1126
615 1161
615 1199
615 1208
615 1236
615 1258
615 1270
615 1271
615 1279
615 1321
615 1338
615 1388
616 816
616 1297
616 1382
617 731
617 852
617 942
617 1367
618 1093
619 662
619 681
619 777
619 786
619 861
619 879
619 916
619 961
619 1062
619 1223
619 1307
619 1308
619 1336
620 695
620 762
620 767
620 800
620 1101
620 1103
620 1250
620 1396
621 674
621 686
621 746
621 1340
622 735
622 828
622 887
623 662
623 879
623 904
623 966
623 1069
623 1198
624 661
624 692
624 706
624 729
624 792
624 911
624 992
624 1172
624 1353
625 644
625 648
625 663
625 716
625 718
625 745
625 755
625 844
625 892
625 923
625 945
625 974
625 976
625 980
625 1019
625 1056
625 1097
625 1109
625 1125
625 1126
625 1132
625 1159
625 1166
625 1169
625 1185
625 1186
625 1189
625 1253
625 1258
625 1270
625 1283
625 1289
625 1321
625 1324
625 1388
626 672
626 689
626 1297
626 1347
626 1361
627 629
627 667
627 738
627 866
628 658
628 705
628 1016
628 1029
628 1066
628 1089
628 1368
629 667
629 707
629 723
629 866
629 882
629 1032
629 1079
629 1081
629 1223
629 1293
630 681
630 851
630 858
630 916
630 968
630 983
630 1004
630 1015
630 1151
630 1182
630 1209
630 1232
630 1275
631 975
631 1031
631 1090
631 1109
632 673
632 676
632 740
632 742
632 771
632 824
632 833
632 843
632 870
632 1060
632 1289
632 1360
633 646
633 670
633 692
633 896
633 1082
633 1088
633 1206
633 1359
634 681
634 701
634 744
634 900
634 916
634 1220
634 1290
634 1322
634 1360
635 890
635 971
635 1183
635 1286
636 644
636 683
636 690
636 842
636 974
636 1054
636 1099
637 724
637 754
637 887
637 954
637 956
637 1154
637 1233
637 1286
637 1357
638 696
638 713
638 725
638 780
638 932
638 1017
638 1020
638 1071
638 1215
638 1391
638 1394
639 676
639 677
639 1041
639 1068
640 678
640 695
640 762
640 798
640 887
640 897
640 919
640 963
640 1016
640 1029
640 1040
640 1061
640 1089
640 1228
640 1294
641 775
641 813
641 876
641 915
641 928
641 950
641 1018
641 1079
641 1101
641 1265
642 675
642 677
642 701
642 728
642 744
642 855
642 865
642 885
642 968
642 1023
643 659
643 758
643 1010
643 1020
643 1335
644 669
644 753
644 781
644 790
644 791
644 819
644 821
644 842
644 864
644 892
644 945
644 962
644 975
644 980
644 1019
644 1031
644 1093
644 1099
644 1104
644 1109
644 1126
644 1145
644 1146
644 1148
644 1159
644 1169
644 1186
644 1199
644 1321
644 1324
644 1381
645 687
645 882
645 970
645 1029
645 1089
645 1155
645 1293
646 670
646 692
646 896
646 1082
646 1088
646 1206
646 1359
647 726
647 776
647 867
647 873
647 953
647 1101
647 1244
647 1315
647 1374
648 1099
649 678
649 838
649 840
649 924
649 1040
650 715
650 770
650 835
650 883
650 937
651 832
651 851
651 931
651 1027
652 1087
652 1286
652 1377
653 655
653 680
653 838
653 840
653 854
653 959
653 995
653 1248
653 1393
654 660
654 705
654 834
654 1001
654 1062
654 1077
654 1105
654 1147
654 1171
654 1192
654 1250
654 1264
654 1277
654 1307
654 1376
655 738
655 884
655 959
655 1103
655 1396
656 817
656 870
656 873
656 1001
656 1060
656 1238
656 1251
657 682
657 742
657 802
657 833
657 850
657 1036
657 1039
657 1174
657 1200
658 695
658 729
658 757
658 762
658 790
658 832
658 849
658 870
658 878
658 886
658 907
658 925
658 931
658 986
658 987
658 1019
658 1022
658 1026
658 1031
658 1060
658 1077
658 1091
658 1093
658 1148
658 1170
658 1189
658 1199
658 1217
658 1279
658 1305
658 1343
658 1348
658 1368
658 1371
658 1373
658 1378
658 1388
659 758
659 1010
659 1020
659 1335
660 834
660 1191
660 1250
660 1267
661 734
661 792
661 933
661 992
662 793
662 867
662 879
662 957
662 964
662 966
662 998
662 1050
662 1077
662 1374
663 753
663 755
663 781
663 871
663 898
663 899
663 980
663 1047
663 1058
663 1093
663 1096
663 1117
663 1145
663 1146
663 1177
663 1186
663 1226
663 1258
663 1283
663 1291
663 1339
663 1381
664 727
664 802
664 860
664 875
664 920
664 936
664 1001
664 1012
664 1100
664 1149
664 1200
664 1223
664 1245
664 1292
664 1301
664 1327
664 1370
664 1395
665 1117
665 1145
666 1061
666 1294
667 738
667 866
668 767
668 1147
668 1277
668 1300
669 704
669 836
669 864
669 871
669 945
669 974
669 975
669 1025
669 1122
669 1146
669 1186
669 1195
669 1236
669 1288
669 1324
669 1343
669 1373
669 1388
670 722
670 738
670 765
670 809
670 886
670 896
670 978
670 996
671 838
671 840
671 845
671 857
671 938
671 1196
671 1221
671 1222
671 1328
671 1333
672 681
672 689
672 715
672 849
672 883
672 900
672 916
672 1066
672 1100
672 1252
672 1305
672 1347
673 771
673 891
673 1076
673 1176
673 1218
673 1233
674 686
674 746
674 1340
675 728
675 1066
675 1079
675 1330
676 709
676 729
676 852
676 870
676 911
676 932
676 1001
676 1029
676 1060
676 1089
676 1167
676 1172
676 1222
676 1367
676 1394
677 818
677 851
677 1046
677 1257
678 695
678 705
678 752
678 762
678 823
678 867
678 918
678 924
678 963
678 979
678 991
678 1024
678 1040
678 1080
678 1118
678 1121
678 1325
678 1374
679 697
679 870
679 1018
679 1060
679 1133
679 1180
680 766
680 841
680 854
680 959
680 1320
681 689
681 916
681 1001
681 1062
681 1082
681 1083
681 1088
681 1209
681 1222
681 1223
681 1255
681 1290
681 1307
682 714
682 780
682 1017
682 1039
682 1080
682 1121
682 1210
682 1222
682 1246
683 759
683 781
683 791
683 794
683 812
683 940
683 945
683 975
683 980
683 986
683 1025
683 1091
683 1111
683 1123
683 1186
683 1195
683 1230
683 1271
683 1279
683 1295
683 1303
683 1378
683 1381
683 1388
684 709
684 1005
684 1067
684 1167
684 1337
685 770
685 1120
686 746
686 870
686 985
686 1060
686 1068
686 1084
686 1153
686 1261
686 1340
687 760
687 766
687 932
687 970
687 1155
687 1394
688 690
688 940
688 1035
688 1058
688 1312
688 1324
689 715
689 849
689 883
689 900
689 916
689 1066
689 1100
689 1252
689 1305
689 1347
690 718
690 745
690 763
690 794
690 842
690 892
690 923
690 945
690 948
690 1047
690 1058
690 1085
690 1093
690 1096
690 1119
690 1145
690 1161
690 1166
690 1186
690 1208
690 1230
690 1270
690 1295
690 1321
690 1324
690 1338
690 1351
690 1366
690 1381
690 1383
691 718
691 836
691 898
691 905
691 980
691 987
691 1047
691 1056
691 1058
691 1085
691 1125
691 1199
691 1212
691 1217
691 1270
691 1271
691 1324
691 1338
691 1383
691 1388
692 695
692 762
692 911
692 937
692 992
692 1023
692 1028
692 1041
692 1172
692 1207
692 1240
692 1354
693 734
693 933
693 1013
693 1083
693 1255
694 830
694 937
694 1387
694 1393
695 762
695 843
695 906
695 963
695 985
695 991
695 1040
695 1084
695 1140
695 1206
695 1264
695 1284
695 1299
695 1322
696 724
696 1071
696 1238
697 730
697 912
697 920
697 1114
697 1133
697 1136
697 1395
698 781
698 1126
699 713
699 831
699 937
699 965
699 1003
699 1052
699 1136
699 1147
699 1277
699 1344
700 826
700 1157
700 1358
700 1389
701 744
701 798
701 850
701 919
701 938
701 1005
701 1196
701 1290
701 1337
702 761
702 859
702 950
702 1372
702 1385
702 1386
702 1387
703 759
703 948
704 745
704 753
704 755
704 759
704 801
704 815
704 836
704 872
704 905
704 922
704 945
704 960
704 974
704 981
704 986
704 1033
704 1048
704 1051
704 1145
704 1161
704 1169
704 1177
704 1189
704 1230
704 1234
704 1236
704 1253
704 1270
704 1291
704 1348
704 1356
704 1373
704 1378
705 825
705 834
705 1040
705 1077
705 1106
705 1108
705 1144
705 1181
705 1280
705 1368
706 711
706 725
706 735
706 805
706 843
706 884
706 992
706 1024
706 1068
706 1070
706 1240
706 1353
706 1391
707 723
707 725
707 861
707 863
707 866
707 961
707 1092
707 1267
707 1308
707 1336
707 1369
707 1391
708 836
708 976
709 996
709 1029
709 1089
709 1167
709 1320
711 742
711 833
711 863
711 932
711 1009
711 1042
711 1070
711 1353
711 1394
712 793
712 1062
712 1092
712 1187
712 1307
712 1369
712 1375
712 1397
713 789
713 828
713 965
713 1071
713 1262
714 766
714 862
714 1235
714 1292
714 1318
714 1370
715 725
715 764
715 835
715 838
715 840
715 849
715 882
715 883
715 941
715 985
715 1002
715 1084
715 1105
715 1140
715 1175
715 1229
715 1252
715 1284
715 1293
715 1305
715 1313
715 1391
716 1295
717 754
717 776
717 1012
717 1023
717 1024
717 1137
717 1149
717 1160
718 745
718 781
718 819
718 844
718 872
718 895
718 940
718 948
718 960
718 962
718 975
718 1035
718 1054
718 1093
718 1097
718 1104
718 1111
718 1112
718 1117
718 1125
718 1146
718 1161
718 1189
718 1208
718 1253
718 1274
718 1279
718 1283
718 1295
718 1343
718 1378
718 1383
719 867
719 958
719 1002
719 1062
719 1128
719 1175
719 1302
719 1307
719 1374
720 802
720 808
720 841
720 1200
720 1375
721 939
721 1198
721 1311
722 765
722 775
722 868
722 882
722 896
722 928
722 955
722 1018
722 1222
722 1293
722 1333
723 725
723 861
723 863
723 866
723 961
723 1092
723 1267
723 1308
723 1336
723 1369
723 1391
724 1154
724 1300
725 813
725 883
725 944
725 1071
725 1197
725 1353
725 1391
726 743
726 882
726 932
726 953
726 1018
726 1072
726 1285
726 1293
726 1315
726 1394
727 852
727 1087
727 1201
727 1301
727 1367
728 1066
728 1079
728 1330
729 775
729 811
729 928
729 985
729 992
729 1084
730 741
730 845
730 857
730 902
730 999
730 1207
730 1252
731 852
731 942
731 1367
732 743
732 997
732 1070
732 1168
732 1326
732 1392
733 1115
733 1332
733 1359
734 792
734 933
734 1092
734 1165
734 1254
734 1272
734 1369
735 856
735 988
735 1028
735 1242
735 1353
735 1354
736 811
736 1178
737 785
737 1029
737 1089
737 1168
737 1214
737 1326
738 896
738 903
738 1098
738 1124
738 1299
739 1185
739 1319
740 943
740 990
740 1098
740 1124
740 1239
740 1267
740 1306
740 1397
741 862
741 902
741 999
741 1057
741 1192
741 1243
741 1298
741 1318
742 827
742 833
742 1039
742 1138
742 1164
742 1320
743 997
743 1023
743 1315
744 798
744 850
744 919
744 938
744 1005
744 1196
744 1290
744 1337
745 757
745 836
745 864
745 872
745 934
745 952
745 962
745 975
745 1033
745 1073
745 1085
745 1093
745 1099
745 1126
745 1146
745 1166
745 1185
745 1189
745 1204
745 1212
745 1227
745 1230
745 1274
745 1321
745 1352
746 870
746 985
746 1060
746 1068
746 1084
746 1153
746 1261
746 1340
747 793
747 1107
747 1147
747 1188
747 1244
747 1256
747 1277
747 1292
747 1329
747 1370
748 1062
748 1080
748 1103
748 1121
748 1307
748 1396
748 1397
749 1131
749 1278
750 784
750 909
751 781
751 819
751 844
751 974
751 975
751 1047
751 1132
751 1145
751 1186
751 1383
752 822
752 1006
752 1040
752 1062
752 1068
752 1113
752 1260
752 1307
752 1325
752 1364
753 755
753 759
753 801
753 836
753 888
753 895
753 930
753 934
753 981
753 1047
753 1085
753 1093
753 1097
753 1104
753 1148
753 1166
753 1185
753 1186
753 1208
753 1217
753 1253
753 1258
753 1270
753 1279
753 1295
753 1319
753 1321
753 1324
753 1338
753 1356
753 1371
753 1378
753 1383
754 845
754 857
754 863
754 971
754 1003
754 1052
754 1154
754 1183
754 1344
755 819
755 836
755 837
755 888
755 895
755 980
755 1047
755 1056
755 1058
755 1091
755 1093
755 1159
755 1186
755 1199
755 1212
755 1230
755 1236
755 1279
755 1312
755 1324
755 1338
755 1352
755 1362
755 1378
755 1381
755 1383
756 1258
757 779
757 799
757 1195
757 1314
758 789
758 1010
758 1262
759 781
759 819
759 895
759 898
759 907
759 960
759 962
759 987
759 1031
759 1051
759 1056
759 1091
759 1104
759 1123
759 1132
759 1146
759 1162
759 1169
759 1170
759 1184
759 1199
759 1212
759 1274
759 1314
759 1319
759 1362
760 790
760 970
760 1026
760 1188
760 1210
760 1329
761 843
761 859
761 932
761 1194
761 1372
761 1394
762 843
762 906
762 963
762 985
762 991
762 1040
762 1084
762 1140
762 1206
762 1264
762 1284
762 1299
762 1322
763 810
763 898
763 905
763 907
763 976
763 981
763 1025
763 1035
763 1078
763 1111
763 1159
763 1162
763 1195
763 1291
763 1321
763 1356
763 1362
763 1371
764 883
764 941
764 1118
764 1222
765 775
765 868
765 882
765 896
765 928
765 955
765 1018
765 1222
765 1293
765 1333
766 843
766 854
766 970
766 1057
766 1098
766 1124
766 1298
766 1344
767 1041
767 1065
767 1108
767 1141
767 1171
767 1181
767 1376
768 787
768 1252
769 1025
769 1047
769 1271
770 835
770 867
770 1120
770 1374
771 891
771 1076
771 1176
771 1218
771 1233
772 1045
772 1157
772 1259
772 1389
773 814
773 1049
773 1238
775 914
775 928
775 1024
775 1087
775 1265
776 953
776 1153
776 1257
777 796
777 807
777 846
777 957
777 1003
777 1052
777 1114
777 1139
778 801
778 820
778 842
778 871
778 1099
778 1102
778 1230
778 1270
779 844
779 847
779 892
779 899
779 905
779 907
779 945
779 974
779 984
779 987
779 1019
779 1047
779 1054
779 1090
779 1096
779 1097
779 1117
779 1132
779 1145
779 1169
779 1199
779 1208
779 1226
779 1388
780 1017
780 1071
781 872
781 895
781 952
781 975
781 986
781 1035
781 1058
781 1099
781 1119
781 1146
781 1161
781 1169
781 1211
781 1258
781 1271
781 1274
781 1279
781 1356
781 1362
781 1371
782 923
782 1025
782 1148
782 1217
783 853
783 901
783 1075
783 1139
783 1260
783 1364
784 803
784 998
784 1222
785 1214
785 1397
786 1083
786 1160
786 1255
786 1286
787 861
787 961
788 921
788 1028
788 1057
788 1298
788 1354
789 936
789 969
789 1010
789 1261
789 1262
789 1327
789 1397
790 798
790 799
790 872
790 919
790 925
790 937
790 948
790 960
790 1019
790 1031
790 1035
790 1091
790 1098
790 1099
790 1109
790 1123
790 1124
790 1126
790 1146
790 1169
790 1208
790 1258
790 1274
790 1279
790 1339
791 799
791 836
791 864
791 976
791 984
791 1035
791 1056
791 1109
791 1142
791 1145
791 1161
791 1185
791 1195
791 1199
791 1258
791 1270
791 1288
791 1319
791 1381
792 933
792 992
793 879
793 996
793 1080
793 1087
793 1103
793 1121
793 1252
793 1256
793 1289
793 1396
794 974
794 976
794 984
794 1025
794 1031
794 1047
794 1096
794 1097
794 1177
794 1230
794 1258
794 1279
794 1321
794 1339
795 1108
795 1151
795 1181
796 846
796 915
796 989
796 991
796 1028
796 1129
796 1137
796 1334
796 1354
797 885
797 1296
798 831
798 890
798 908
798 919
798 963
798 1062
798 1273
798 1307
798 1341
798 1398
799 905
799 923
799 948
799 952
799 975
799 981
799 1025
799 1051
799 1109
799 1116
799 1130
799 1156
799 1186
799 1204
799 1230
799 1234
799 1258
799 1270
799 1324
799 1348
799 1378
800 822
800 1006
800 1041
800 1323
801 820
801 864
801 898
801 952
801 1025
801 1031
801 1112
801 1123
801 1145
801 1159
801 1195
801 1211
801 1319
801 1324
802 808
802 855
802 865
802 1039
802 1200
802 1250
802 1345
803 1223
804 807
804 884
804 996
804 1070
804 1355
805 1267
805 1292
805 1353
805 1370
806 1062
806 1137
806 1191
806 1307
806 1335
806 1380
807 946
807 1023
807 1330
807 1355
807 1393
808 841
808 1200
808 1375
809 896
809 978
809 1242
810 987
811 886
811 1100
811 1178
811 1215
811 1390
812 842
812 872
812 925
812 974
812 976
812 1025
812 1085
812 1122
812 1132
812 1148
812 1177
812 1186
812 1208
812 1230
812 1270
812 1283
812 1289
812 1381
813 911
813 938
813 1137
813 1172
813 1196
813 1238
813 1247
813 1265
813 1346
813 1391
814 1174
814 1344
814 1393
815 975
816 998
816 1110
816 1150
816 1382
817 858
817 906
817 991
817 1009
817 1251
817 1260
817 1275
817 1289
817 1364
818 841
818 1194
819 864
819 871
819 872
819 892
819 907
819 925
819 1031
819 1058
819 1090
819 1132
819 1156
819 1161
819 1169
819 1189
819 1212
819 1230
819 1270
819 1348
819 1362
820 836
820 1019
820 1063
820 1109
820 1217
820 1283
820 1295
820 1381
820 1383
821 899
821 974
821 1019
821 1047
821 1091
821 1099
821 1102
821 1177
821 1195
821 1212
821 1217
821 1226
821 1258
821 1381
822 999
822 1006
822 1240
822 1325
823 829
823 926
823 979
823 1032
823 1040
823 1081
823 1113
824 861
824 961
824 1247
824 1345
824 1346
825 1024
825 1144
826 1157
826 1358
826 1389
827 833
827 1094
827 1138
827 1260
827 1281
827 1364
828 939
828 1269
828 1311
829 851
829 926
829 954
829 956
829 979
829 1016
829 1029
829 1089
829 1297
830 937
830 1387
830 1393
831 919
831 965
831 1188
831 1329
832 906
832 920
832 931
832 1027
832 1267
832 1390
832 1395
833 1039
833 1138
833 1164
833 1320
834 1001
834 1062
834 1077
834 1105
834 1147
834 1171
834 1192
834 1250
834 1264
834 1277
834 1307
834 1376
835 883
835 937
836 844
836 898
836 1054
836 1090
836 1102
836 1104
836 1111
836 1116
836 1117
836 1212
836 1258
836 1271
836 1321
836 1362
836 1378
836 1381
837 1021
837 1051
837 1145
837 1371
838 840
838 883
838 924
838 959
839 967
839 1131
839 1139
840 883
840 924
840 959
841 854
841 1036
841 1166
841 1267
841 1272
841 1397
842 872
842 922
842 923
842 948
842 975
842 981
842 986
842 987
842 1019
842 1031
842 1054
842 1056
842 1058
842 1090
842 1093
842 1096
842 1099
842 1111
842 1148
842 1159
842 1166
842 1170
842 1195
842 1212
842 1216
842 1226
842 1288
842 1291
842 1314
842 1321
842 1338
842 1339
842 1362
843 1203
843 1286
843 1353
843 1372
844 892
844 905
844 952
844 1025
844 1085
844 1111
844 1117
844 1132
844 1146
844 1159
844 1288
844 1338
845 857
845 868
845 920
845 955
845 1127
845 1174
845 1237
845 1273
845 1395
846 915
846 989
846 991
846 1028
846 1129
846 1137
846 1334
846 1354
847 1096
847 1195
847 1321
847 1338
847 1348
848 1041
848 1094
848 1221
848 1231
848 1281
849 883
849 891
849 906
849 1076
849 1101
849 1305
850 998
850 1039
851 926
851 958
851 1027
851 1209
851 1357
852 875
852 942
852 1029
852 1089
852 1245
852 1301
852 1367
853 901
853 991
853 996
853 1008
853 1065
853 1075
853 1094
853 1281
854 959
854 1320
855 865
855 890
855 1028
855 1200
855 1354
856 914
856 935
856 988
856 991
856 1026
856 1105
856 1108
856 1181
856 1392
857 868
857 920
857 955
857 1127
857 1174
857 1237
857 1273
857 1395
858 1151
858 1209
858 1240
858 1275
859 950
859 1372
859 1385
859 1386
859 1387
860 908
860 1359
861 868
861 955
861 961
861 1067
861 1105
861 1215
861 1387
861 1390
862 894
862 902
862 913
862 1012
862 1026
862 1057
862 1149
862 1298
862 1318
863 904
863 1069
863 1082
863 1088
863 1202
863 1203
864 892
864 899
864 962
864 974
864 986
864 1099
864 1116
864 1146
864 1186
864 1212
864 1283
864 1289
864 1324
864 1383
865 890
865 1028
865 1200
865 1354
866 882
866 1032
866 1079
866 1081
866 1223
866 1293
867 875
867 879
867 953
867 1040
867 1108
867 1181
867 1202
867 1245
867 1302
867 1374
868 955
868 961
868 1068
868 1397
869 1077
869 1198
869 1243
869 1360
870 906
870 990
870 1060
870 1133
870 1202
870 1239
870 1251
871 898
871 940
871 974
871 1035
871 1102
871 1169
871 1258
871 1291
871 1303
871 1314
871 1381
872 898
872 905
872 907
872 923
872 925
872 945
872 976
872 986
872 1019
872 1031
872 1085
872 1090
872 1093
872 1123
872 1126
872 1132
872 1134
872 1156
872 1190
872 1204
872 1212
872 1217
872 1241
872 1271
872 1314
872 1348
872 1356
873 953
873 1251
874 1009
874 1013
874 1151
875 958
875 995
875 1101
875 1245
875 1248
875 1273
875 1367
875 1374
876 1265
876 1345
877 887
877 1101
878 906
878 1022
878 1164
879 957
879 964
879 966
879 998
879 1050
879 1077
879 1374
880 889
880 1100
880 1158
881 892
881 948
881 1169
881 1274
882 883
882 1043
882 1143
882 1155
882 1192
882 1222
882 1293
882 1315
883 941
883 985
883 1002
883 1084
883 1105
883 1140
883 1175
883 1229
883 1252
883 1284
883 1293
883 1305
883 1313
883 1391
884 1113
884 1131
884 1164
884 1333
884 1353
884 1355
885 908
885 1098
885 1124
885 1296
886 896
886 969
886 985
886 1041
886 1084
886 1198
886 1289
887 908
887 957
887 963
887 1030
887 1154
887 1197
887 1223
887 1292
887 1330
887 1370
888 898
888 905
888 960
888 975
888 993
888 1025
888 1034
888 1051
888 1085
888 1091
888 1132
888 1145
888 1148
888 1185
888 1195
888 1199
888 1236
888 1274
888 1288
888 1295
888 1314
888 1324
888 1362
889 1100
889 1158
890 919
890 1095
890 1215
891 968
891 1076
891 1140
891 1284
891 1305
892 905
892 948
892 980
892 984
892 987
892 1007
892 1019
892 1048
892 1093
892 1159
892 1186
892 1204
892 1236
892 1253
892 1270
892 1271
892 1291
892 1319
892 1356
892 1381
892 1388
893 1038
893 1164
893 1210
894 913
894 964
894 1032
894 1081
894 1082
894 1088
894 1221
894 1297
894 1318
894 1387
895 952
895 962
895 1019
895 1093
895 1096
895 1099
895 1111
895 1146
895 1161
895 1186
895 1212
895 1217
895 1258
895 1274
895 1312
895 1356
895 1371
895 1383
895 1388
896 978
896 996
897 963
897 1077
897 1165
897 1187
897 1228
897 1254
898 907
898 940
898 960
898 980
898 981
898 987
898 1054
898 1056
898 1116
898 1117
898 1189
898 1199
898 1204
898 1208
898 1236
898 1241
898 1279
898 1295
898 1312
898 1338
898 1381
898 1383
899 923
899 948
899 952
899 975
899 976
899 1019
899 1054
899 1090
899 1148
899 1189
899 1212
899 1339
899 1362
900 936
900 1087
900 1101
900 1153
900 1182
900 1205
900 1282
900 1290
900 1327
900 1358
901 991
901 996
901 1008
901 1065
901 1075
901 1094
901 1281
902 999
902 1057
902 1192
902 1243
902 1298
902 1318
903 1141
904 910
904 966
904 1069
904 1163
904 1328
904 1358
905 907
905 976
905 980
905 984
905 986
905 987
905 1048
905 1054
905 1099
905 1117
905 1186
905 1193
905 1204
905 1208
905 1212
905 1217
905 1283
905 1291
905 1312
905 1314
905 1321
905 1338
905 1383
906 931
906 1022
906 1026
906 1049
906 1060
906 1098
906 1124
906 1243
906 1305
907 922
907 945
907 948
907 952
907 980
907 1031
907 1056
907 1058
907 1093
907 1097
907 1099
907 1102
907 1123
907 1145
907 1148
907 1162
907 1212
907 1226
907 1230
907 1253
907 1271
907 1319
907 1371
907 1373
907 1378
907 1383
908 911
908 919
908 938
908 1092
908 1095
908 1098
908 1124
908 1172
908 1196
908 1246
908 1286
908 1323
908 1341
908 1369
908 1398
909 1032
909 1066
909 1081
909 1139
910 1069
910 1163
910 1358
911 992
911 996
911 1172
912 914
912 1202
912 1323
913 964
913 1032
913 1081
913 1082
913 1088
913 1221
913 1297
913 1318
913 1387
914 928
914 988
914 1087
914 1238
914 1244
914 1308
914 1336
914 1361
915 1265
915 1276
915 1313
916 1001
916 1062
916 1082
916 1083
916 1088
916 1209
916 1222
916 1223
916 1255
916 1290
916 1307
917 1033
917 1186
918 1040
918 1077
918 1140
918 1284
918 1351
919 963
919 1062
919 1273
919 1307
919 1341
919 1398
920 927
920 931
920 1000
920 1002
920 1023
920 1030
920 1175
920 1219
920 1247
920 1346
920 1395
921 1028
921 1057
921 1298
921 1354
922 923
922 925
922 974
922 980
922 1019
922 1035
922 1048
922 1058
922 1091
922 1093
922 1104
922 1148
922 1217
922 1258
922 1295
922 1378
922 1388
923 934
923 945
923 976
923 984
923 1035
923 1091
923 1093
923 1117
923 1186
923 1195
923 1208
923 1319
923 1339
923 1378
924 1040
925 948
925 974
925 975
925 980
925 987
925 1019
925 1054
925 1086
925 1093
925 1096
925 1132
925 1170
925 1212
925 1213
925 1226
925 1234
925 1321
925 1324
925 1338
925 1371
926 954
926 956
926 979
926 1016
926 1029
926 1089
926 1297
927 938
927 1070
927 1072
927 1082
927 1088
927 1196
927 1285
927 1395
928 1024
928 1087
928 1265
929 1189
929 1371
930 945
930 1056
930 1099
930 1146
930 1161
930 1230
930 1258
930 1270
930 1312
931 1027
931 1267
931 1390
931 1395
932 970
932 1023
932 1071
932 1082
932 1088
932 1139
932 1315
932 1372
932 1375
932 1394
933 1092
933 1165
933 1254
933 1272
933 1369
934 975
934 1019
934 1048
934 1093
934 1096
934 1126
934 1145
934 1146
934 1184
934 1185
934 1258
934 1271
934 1274
934 1283
934 1338
934 1356
934 1371
934 1373
934 1383
935 988
935 1304
936 1118
936 1187
936 1262
936 1308
936 1327
936 1336
937 938
937 965
937 1001
937 1196
937 1198
937 1289
938 967
938 1036
938 1171
938 1196
938 1201
938 1224
938 1376
939 1311
940 962
940 980
940 981
940 1085
940 1091
940 1146
940 1169
940 1199
940 1230
940 1319
940 1339
940 1378
941 1118
941 1222
942 1367
943 1002
943 1005
943 1008
943 1175
943 1306
943 1337
944 951
944 1028
944 1100
944 1354
944 1391
945 962
945 984
945 987
945 1019
945 1058
945 1093
945 1097
945 1109
945 1112
945 1145
945 1148
945 1166
945 1185
945 1271
945 1283
945 1314
945 1321
945 1378
946 1002
946 1175
947 973
947 1070
947 1358
948 952
948 960
948 980
948 981
948 1019
948 1090
948 1091
948 1099
948 1111
948 1170
948 1177
948 1184
948 1186
948 1208
948 1321
948 1324
948 1371
948 1378
949 1204
950 1020
950 1265
951 1257
952 976
952 987
952 1048
952 1054
952 1159
952 1186
952 1199
952 1212
952 1234
952 1343
952 1373
952 1378
952 1388
953 1101
953 1244
953 1315
953 1374
954 956
954 1041
954 1154
954 1244
955 961
955 1068
955 1397
956 1041
956 1154
956 1244
957 1066
957 1210
957 1238
958 1215
958 1245
958 1302
958 1344
959 995
959 1248
959 1393
960 962
960 974
960 975
960 980
960 981
960 993
960 1031
960 1058
960 1093
960 1104
960 1109
960 1125
960 1132
960 1170
960 1185
960 1186
960 1212
960 1217
960 1225
960 1274
960 1289
960 1291
960 1338
960 1348
960 1356
960 1362
960 1378
961 1067
961 1105
961 1215
961 1387
961 1390
962 984
962 987
962 1019
962 1031
962 1051
962 1093
962 1119
962 1146
962 1170
962 1185
962 1226
962 1258
962 1270
962 1324
962 1378
963 1016
963 1029
963 1040
963 1061
963 1089
963 1228
963 1294
964 1137
964 1345
965 1003
965 1052
965 1136
965 1147
965 1277
965 1344
966 1069
966 1198
967 1196
967 1229
968 1076
968 1165
968 1209
968 1254
969 1222
969 1262
969 1390
970 1155
970 1394
971 1062
971 1083
971 1183
971 1255
971 1307
972 1030
972 1221
973 1070
973 1358
974 984
974 987
974 1056
974 1085
974 1086
974 1096
974 1109
974 1111
974 1112
974 1116
974 1117
974 1132
974 1199
974 1204
974 1208
974 1230
974 1271
974 1288
974 1289
975 980
975 984
975 1048
975 1056
975 1091
975 1097
975 1104
975 1111
975 1112
975 1122
975 1145
975 1148
975 1169
975 1177
975 1226
975 1230
975 1283
975 1295
975 1324
975 1348
976 987
976 1048
976 1056
976 1116
976 1161
976 1185
976 1212
976 1230
976 1321
976 1339
977 1044
977 1182
977 1350
978 1242
979 1032
979 1040
979 1081
979 1113
980 984
980 1047
980 1122
980 1145
980 1148
980 1156
980 1159
980 1161
980 1162
980 1186
980 1195
980 1217
980 1236
980 1324
980 1348
980 1356
980 1371
980 1381
981 984
981 986
981 1031
981 1048
981 1085
981 1099
981 1112
981 1126
981 1132
981 1148
981 1159
981 1166
981 1186
981 1208
981 1212
981 1258
981 1270
981 1274
981 1295
981 1352
982 1137
982 1179
982 1392
983 1192
983 1194
983 1209
983 1232
984 1025
984 1033
984 1048
984 1078
984 1085
984 1102
984 1104
984 1111
984 1112
984 1117
984 1132
984 1162
984 1177
984 1193
984 1195
984 1230
984 1236
984 1295
984 1314
984 1339
984 1383
985 1080
985 1084
985 1121
985 1297
986 1054
986 1078
986 1093
986 1156
986 1170
986 1199
986 1270
986 1314
986 1388
987 1051
987 1056
987 1091
987 1093
987 1096
987 1099
987 1111
987 1112
987 1116
987 1117
987 1125
987 1146
987 1186
987 1189
987 1195
987 1230
987 1258
987 1314
987 1378
987 1383
988 991
988 1026
988 1105
988 1108
988 1181
988 1392
990 1060
990 1239
990 1375
991 1040
991 1194
991 1322
992 1172
992 1353
993 1371
994 1384
995 1245
995 1248
996 1026
996 1036
996 1049
996 1079
996 1095
996 1167
996 1172
996 1355
996 1360
996 1390
997 1070
997 1168
997 1326
997 1392
998 1238
998 1247
998 1276
998 1346
999 1006
1000 1043
1000 1173
1000 1219
1000 1395
1001 1108
1001 1128
1001 1151
1001 1166
1001 1181
1001 1221
1001 1251
1001 1259
1001 1392
1002 1135
1002 1173
1002 1175
1002 1247
1002 1268
1002 1302
1002 1306
1002 1346
1002 1395
1003 1024
1003 1042
1003 1052
1003 1129
1003 1334
1003 1361
1004 1015
1004 1115
1004 1209
1004 1243
1004 1332
1005 1136
1005 1165
1005 1254
1005 1306
1005 1337
1005 1386
1006 1240
1006 1325
1007 1048
1007 1189
1007 1216
1007 1388
1008 1306
1009 1259
1009 1310
1010 1262
1011 1264
1012 1024
1012 1149
1012 1318
1013 1113
1013 1131
1013 1137
1013 1272
1013 1308
1013 1336
1014 1019
1014 1091
1014 1177
1015 1115
1015 1209
1015 1243
1015 1332
1016 1036
1016 1079
1016 1110
1016 1153
1016 1358
1016 1368
1017 1071
1018 1133
1018 1265
1018 1315
1019 1085
1019 1096
1019 1097
1019 1104
1019 1109
1019 1112
1019 1148
1019 1195
1019 1279
1019 1283
1019 1321
1019 1339
1020 1071
1022 1164
1023 1137
1023 1394
1023 1395
1024 1040
1024 1052
1024 1144
1024 1149
1024 1201
1024 1264
1024 1353
1025 1031
1025 1099
1025 1104
1025 1126
1025 1132
1025 1169
1025 1204
1025 1217
1025 1236
1025 1288
1025 1295
1025 1319
1025 1321
1025 1338
1025 1371
1025 1381
1025 1383
1025 1388
1026 1318
1026 1335
1026 1350
1028 1036
1028 1333
1028 1354
1029 1089
1029 1092
1029 1155
1029 1165
1029 1167
1029 1215
1029 1254
1029 1367
1029 1368
1029 1369
1029 1375
1030 1105
1030 1168
1030 1308
1030 1326
1030 1336
1030 1361
1030 1395
1031 1035
1031 1096
1031 1097
1031 1102
1031 1125
1031 1195
1031 1204
1031 1217
1031 1241
1031 1283
1031 1314
1031 1348
1031 1356
1031 1371
1032 1037
1032 1041
1032 1081
1032 1106
1032 1259
1032 1280
1033 1035
1033 1166
1035 1051
1035 1056
1035 1086
1035 1102
1035 1117
1035 1126
1035 1170
1035 1199
1035 1212
1035 1217
1035 1283
1035 1295
1035 1356
1036 1039
1036 1049
1036 1067
1036 1187
1036 1196
1036 1257
1036 1354
1037 1081
1037 1082
1037 1088
1037 1187
1037 1238
1037 1260
1037 1304
1037 1364
1038 1164
1038 1210
1039 1174
1039 1200
1040 1080
1040 1118
1040 1121
1040 1325
1040 1374
1041 1081
1041 1191
1041 1206
1041 1223
1041 1231
1041 1323
1042 1052
1042 1128
1043 1219
1043 1243
1043 1293
1044 1182
1044 1350
1045 1157
1045 1259
1045 1389
1046 1098
1046 1124
1046 1252
1046 1304
1047 1048
1047 1054
1047 1096
1047 1204
1047 1208
1047 1212
1047 1258
1047 1270
1047 1319
1047 1324
1047 1356
1047 1383
1048 1091
1048 1145
1048 1161
1048 1170
1048 1186
1048 1189
1048 1208
1048 1283
1048 1312
1048 1321
1048 1338
1048 1356
1048 1378
1049 1107
1049 1108
1049 1181
1049 1194
1049 1205
1049 1282
1049 1344
1050 1292
1050 1370
1051 1058
1051 1097
1051 1102
1051 1104
1051 1109
1051 1132
1051 1161
1051 1170
1051 1204
1051 1212
1051 1217
1051 1227
1051 1236
1051 1279
1051 1288
1051 1338
1052 1129
1052 1334
1052 1361
1053 1164
1054 1058
1054 1109
1054 1117
1054 1123
1054 1125
1054 1132
1054 1146
1054 1169
1054 1185
1054 1186
1054 1195
1054 1199
1054 1204
1054 1212
1054 1217
1054 1234
1054 1236
1054 1270
1054 1271
1054 1319
1056 1058
1056 1063
1056 1085
1056 1102
1056 1109
1056 1117
1056 1126
1056 1159
1056 1162
1056 1189
1056 1204
1056 1213
1056 1217
1056 1230
1056 1288
1056 1289
1056 1312
1056 1356
1056 1378
1057 1160
1057 1298
1057 1318
1057 1345
1057 1361
1058 1085
1058 1091
1058 1109
1058 1111
1058 1112
1058 1119
1058 1148
1058 1152
1058 1159
1058 1184
1058 1193
1058 1212
1058 1236
1058 1258
1058 1270
1058 1283
1058 1288
1058 1295
1058 1319
1058 1362
1058 1373
1058 1378
1058 1383
1059 1117
1060 1133
1060 1202
1060 1239
1060 1251
1061 1129
1061 1198
1061 1294
1061 1334
1061 1345
1062 1183
1062 1289
1062 1300
1062 1302
1062 1307
1062 1325
1062 1345
1063 1381
1064 1067
1064 1143
1064 1266
1065 1250
1066 1077
1066 1360
1066 1368
1067 1266
1068 1222
1068 1325
1068 1353
1068 1387
1069 1163
1069 1328
1069 1358
1070 1353
1070 1355
1071 1215
1071 1391
1071 1394
1072 1285
1072 1315
1074 1161
1075 1139
1075 1260
1075 1364
1076 1140
1076 1284
1076 1305
1077 1092
1077 1206
1077 1223
1077 1228
1077 1257
1077 1369
1078 1096
1078 1099
1078 1146
1078 1227
1079 1105
1079 1265
1080 1084
1080 1121
1080 1246
1081 1106
1081 1259
1081 1280
1082 1088
1082 1115
1082 1252
1082 1276
1082 1332
1082 1394
1083 1183
1083 1255
1084 1121
1084 1297
1085 1093
1085 1096
1085 1145
1085 1177
1085 1185
1085 1199
1085 1279
1085 1319
1085 1324
1085 1338
1085 1348
1085 1383
1085 1388
1086 1132
1086 1159
1086 1170
1086 1186
1086 1230
1087 1301
1087 1377
1088 1115
1088 1252
1088 1276
1088 1332
1088 1394
1089 1092
1089 1155
1089 1165
1089 1167
1089 1215
1089 1254
1089 1367
1089 1368
1089 1369
1089 1375
1090 1096
1090 1123
1090 1132
1090 1186
1090 1226
1090 1274
1090 1283
1090 1339
1090 1378
1091 1093
1091 1117
1091 1148
1091 1199
1091 1204
1091 1217
1091 1236
1091 1263
1091 1271
1091 1283
1091 1295
1091 1348
1091 1371
1091 1378
1091 1388
1092 1223
1092 1289
1092 1350
1092 1351
1092 1369
1093 1116
1093 1159
1093 1161
1093 1162
1093 1177
1093 1204
1093 1212
1093 1241
1093 1274
1093 1356
1093 1371
1094 1138
1094 1215
1094 1231
1094 1281
1096 1104
1096 1109
1096 1132
1096 1146
1096 1195
1096 1212
1096 1230
1096 1258
1096 1270
1096 1271
1096 1274
1096 1338
1096 1348
1096 1381
1097 1104
1097 1123
1097 1170
1097 1195
1097 1217
1097 1236
1097 1378
1098 1124
1098 1240
1099 1109
1099 1170
1099 1195
1099 1208
1099 1230
1099 1270
1099 1271
1099 1338
1099 1371
1100 1158
1100 1203
1100 1392
1101 1164
1101 1245
1101 1265
1101 1305
1101 1350
1102 1104
1102 1117
1102 1145
1102 1217
1102 1295
1102 1314
1102 1371
1102 1381
1103 1106
1103 1280
1103 1396
1104 1109
1104 1117
1104 1146
1104 1161
1104 1195
1104 1253
1104 1279
1104 1356
1104 1383
1105 1131
1105 1182
1105 1308
1105 1336
1106 1280
1106 1300
1106 1396
1107 1174
1107 1252
1107 1256
1108 1181
1108 1322
1108 1374
1109 1111
1109 1116
1109 1146
1109 1159
1109 1162
1109 1189
1109 1204
1109 1217
1109 1253
1109 1271
1109 1295
1109 1348
1109 1371
1109 1383
1110 1215
1111 1117
1111 1145
1111 1270
1111 1274
1111 1295
1111 1324
1112 1123
1112 1146
1112 1189
1112 1204
1112 1212
1112 1253
1112 1319
1112 1352
1112 1356
1112 1362
1113 1325
1115 1332
1116 1126
1116 1148
1116 1156
1116 1161
1116 1274
1116 1314
1116 1383
1117 1217
1117 1227
1117 1236
1117 1241
1117 1338
1118 1191
1118 1327
1119 1123
1119 1148
1119 1156
1119 1159
1119 1216
1119 1271
1119 1388
1121 1246
1122 1234
1123 1190
1123 1195
1123 1199
1123 1204
1123 1208
1123 1216
1123 1258
1123 1279
1123 1356
1123 1362
1124 1240
1125 1217
1125 1319
1127 1237
1127 1260
1127 1364
1128 1302
1128 1393
1129 1194
1129 1294
1129 1334
1131 1278
1132 1148
1132 1177
1132 1186
1132 1195
1132 1208
1132 1253
1132 1289
1133 1180
1135 1157
1135 1175
1135 1224
1135 1268
1135 1389
1136 1337
1137 1141
1137 1179
1137 1192
1137 1218
1138 1260
1138 1281
1138 1364
1139 1394
1140 1171
1140 1284
1140 1376
1143 1266
1143 1293
1145 1186
1145 1253
1145 1319
1145 1378
1146 1148
1146 1162
1146 1170
1146 1189
1146 1258
1146 1283
1146 1338
1146 1348
1146 1373
1146 1378
1146 1388
1147 1256
1147 1277
1148 1159
1148 1166
1148 1249
1148 1289
1148 1295
1148 1348
1148 1356
1148 1383
1149 1318
1150 1188
1150 1201
1150 1329
1151 1209
1151 1275
1152 1186
1152 1274
1152 1314
1152 1373
1153 1323
1154 1233
1154 1286
1154 1357
1155 1293
1157 1192
1157 1203
1157 1268
1157 1389
1159 1161
1159 1162
1159 1208
1159 1217
1159 1230
1159 1258
1159 1270
1159 1274
1159 1288
1159 1312
1159 1314
1159 1321
1159 1338
1159 1381
1160 1298
1160 1304
1161 1169
1161 1204
1161 1227
1161 1230
1161 1291
1161 1314
1161 1356
1161 1383
1162 1166
1162 1170
1162 1184
1162 1226
1162 1289
1162 1356
1162 1373
1163 1358
1164 1191
1164 1215
1165 1228
1165 1254
1165 1337
1166 1371
1166 1373
1167 1320
1168 1326
1169 1195
1169 1212
1169 1270
1169 1338
1169 1356
1169 1378
1169 1381
1170 1185
1170 1186
1170 1195
1170 1270
1170 1279
1170 1291
1170 1295
1170 1348
1170 1373
1170 1378
1171 1196
1171 1284
1171 1344
1171 1376
1173 1175
1173 1219
1175 1247
1175 1268
1175 1302
1175 1306
1175 1346
1175 1395
1176 1221
1177 1186
1177 1216
1177 1271
1177 1279
1177 1314
1177 1324
1177 1381
1179 1392
1181 1322
1181 1374
1182 1192
1182 1209
1183 1255
1183 1307
1184 1208
1184 1212
1184 1314
1184 1362
1184 1378
1185 1186
1185 1195
1185 1199
1185 1226
1185 1241
1185 1258
1185 1289
1185 1339
1185 1348
1186 1199
1186 1230
1186 1236
1186 1253
1186 1258
1186 1283
1186 1338
1186 1371
1187 1202
1187 1228
1187 1289
1187 1327
1188 1256
1188 1273
1188 1286
1188 1329
1189 1204
1189 1208
1189 1217
1189 1226
1189 1283
1189 1314
1189 1338
1189 1356
1189 1371
1189 1373
1189 1388
1191 1223
1192 1218
1192 1229
1192 1232
1192 1293
1192 1304
1192 1389
1194 1232
1194 1334
1194 1372
1194 1380
1195 1295
1195 1324
1195 1338
1195 1339
1195 1352
1195 1356
1195 1371
1195 1378
1195 1383
1196 1201
1196 1224
1196 1376
1197 1391
1198 1240
1198 1294
1198 1309
1199 1208
1199 1217
1199 1230
1199 1279
1199 1319
1200 1250
1200 1345
1201 1286
1201 1301
1201 1313
1202 1374
1203 1267
1203 1322
1203 1361
1203 1389
1204 1271
1204 1283
1204 1348
1204 1388
1205 1282
1206 1222
1207 1240
1208 1217
1208 1230
1208 1236
1208 1241
1208 1253
1208 1270
1208 1271
1208 1274
1208 1279
1208 1324
1208 1343
1209 1232
1209 1275
1210 1350
1212 1217
1212 1226
1212 1236
1212 1270
1212 1271
1212 1295
1212 1314
1212 1324
1212 1338
1212 1378
1212 1383
1214 1397
1215 1281
1216 1321
1216 1371
1216 1381
1217 1236
1217 1253
1217 1258
1217 1288
1217 1314
1217 1321
1217 1371
1217 1378
1219 1395
1220 1290
1220 1297
1221 1231
1221 1289
1222 1293
1223 1286
1223 1369
1224 1268
1225 1352
1226 1234
1226 1271
1226 1381
1228 1254
1230 1234
1230 1258
1230 1270
1230 1283
1230 1321
1230 1381
1231 1281
1233 1260
1233 1364
1236 1279
1236 1312
1236 1314
1236 1339
1236 1371
1236 1378
1236 1381
1237 1260
1237 1364
1238 1251
1238 1385
1239 1375
1240 1275
1240 1353
1241 1289
1243 1261
1244 1247
1244 1256
1244 1273
1244 1316
1244 1330
1244 1346
1245 1248
1245 1273
1245 1367
1245 1374
1247 1346
1247 1395
1249 1274
1253 1271
1253 1312
1253 1356
1254 1337
1256 1277
1256 1292
1256 1329
1256 1370
1257 1316
1258 1338
1258 1356
1258 1371
1258 1383
1259 1272
1259 1349
1260 1325
1260 1364
1261 1262
1261 1300
1262 1327
1262 1397
1264 1350
1267 1360
1268 1389
1269 1345
1270 1288
1270 1324
1270 1356
1270 1383
1271 1339
1273 1322
1273 1329
1274 1279
1274 1295
1274 1362
1274 1373
1274 1383
1279 1338
1280 1300
1280 1396
1283 1288
1283 1295
1283 1303
1283 1319
1283 1324
1283 1356
1284 1376
1285 1315
1286 1329
1286 1377
1287 1289
1287 1363
1288 1295
1288 1348
1289 1303
1289 1307
1289 1363
1289 1366
1289 1369
1289 1375
1289 1383
1289 1397
1290 1322
1290 1360
1291 1338
1291 1339
1291 1348
1292 1370
1293 1315
1294 1334
1294 1345
1295 1348
1295 1378
1295 1383
1297 1347
1297 1382
1298 1318
1298 1345
1298 1361
1299 1323
1300 1307
1300 1386
1301 1367
1302 1307
1302 1374
1303 1371
1306 1337
1307 1325
1307 1345
1308 1327
1308 1336
1308 1380
1312 1338
1314 1319
1314 1338
1314 1339
1314 1356
1314 1362
1314 1366
1314 1378
1315 1394
1317 1341
1317 1397
1317 1398
1321 1352
1324 1378
1324 1383
1325 1364
1327 1336
1331 1379
1333 1351
1333 1354
1336 1380
1337 1386
1338 1348
1338 1352
1338 1356
1338 1362
1341 1398
1343 1378
1344 1376
1346 1395
1347 1361
1348 1378
1348 1381
1348 1383
1350 1369
1351 1369
1352 1356
1353 1391
1372 1394
1373 1378
1375 1394
1378 1383
1381 1383
1390 1397
